 # Version information for this restart file 
 # current date 2021-02-25 00:49:19.855
 # current working dir /scratch/usr/hbcmaxdp/polito/amides/2b/EQUILIBRATION_TI/0
 # Program compiled at                              Fri Mar 20 15:50:19 CET 2020
 # Program compiled on                                                   bfn1001
 # Program compiled for                                                    local
 # Source code revision number                                       git:e635599
 &GLOBAL
   PRINT_LEVEL  LOW
   PROJECT_NAME amides
   RUN_TYPE  MD
   WALLTIME 86400
 &END GLOBAL
 &MOTION
   &MD
     ENSEMBLE  NVT
     STEPS  60000
     TIMESTEP     4.9999999999999994E-01
     STEP_START_VAL  38727
     TIME_START_VAL     1.9363499999997097E+04
     ECONS_START_VAL    -6.9255698305104522E+02
     TEMPERATURE     3.3300000000000000E+02
     &THERMOSTAT
       TYPE  CSVR
       REGION  GLOBAL
       &CSVR
         TIMECON     9.9999999999999982E+00
         &THERMOSTAT_ENERGY
              -3.6505146353555395E-02
         &END THERMOSTAT_ENERGY
         &RNG_INIT
Wiener process for Thermostat # 1        1 F T F   2.2087036365001322E-01        1063068129.0          36681119.0        2036584633.0         343075405.0        1891325584.0        4185285815.0             12345.0             12345.0             12345.0             12345.0             12345.0             12345.0             12345.0             12345.0             12345.0             12345.0             12345.0             12345.0
         &END RNG_INIT
       &END CSVR
     &END THERMOSTAT
     &AVERAGES  T
       &RESTART_AVERAGES
         ITIMES_START  1
         AVECPU     5.5761730310454749E-01
         AVEHUGONIOT     0.0000000000000000E+00
         AVETEMP_BARO     0.0000000000000000E+00
         AVEPOT    -6.9335664495751212E+02
         AVEKIN     8.0528467435025208E-01
         AVETEMP     3.3305629928564025E+02
         AVEKIN_QM     0.0000000000000000E+00
         AVETEMP_QM     0.0000000000000000E+00
         AVEVOL     3.3154567806721134E+04
         AVECELL_A     3.2125344259055929E+01
         AVECELL_B     3.2125344259055929E+01
         AVECELL_C     3.2125344259055929E+01
         AVEALPHA     9.0000000000000000E+01
         AVEBETA     9.0000000000000000E+01
         AVEGAMMA     9.0000000000000000E+01
         AVE_ECONS     5.0014738764449729E-01
         AVE_PRESS     0.0000000000000000E+00
         AVE_PXX     0.0000000000000000E+00
       &END RESTART_AVERAGES
     &END AVERAGES
   &END MD
   &CONSTRAINT
     CONSTRAINT_INIT  T
     &COLLECTIVE
       COLVAR  1
       INTERMOLECULAR  T
       TARGET     2.8345899999999999E+00
       &RESTRAINT
         K     5.9999999999999998E-01
       &END RESTRAINT
     &END COLLECTIVE
     &COLLECTIVE
       COLVAR  2
       INTERMOLECULAR  T
       TARGET     0.0000000000000000E+00
       &RESTRAINT
         K     5.9999999999999998E-01
       &END RESTRAINT
     &END COLLECTIVE
     &COLLECTIVE
       COLVAR  3
       INTERMOLECULAR  T
       TARGET     1.0000000000000000E+00
       &RESTRAINT
         K     5.9999999999999998E-01
       &END RESTRAINT
     &END COLLECTIVE
     &COLLECTIVE
       COLVAR  4
       INTERMOLECULAR  T
       TARGET     2.6499999999999999E+00
       &RESTRAINT
         K     2.0000000000000001E-01
       &END RESTRAINT
     &END COLLECTIVE
     &COLVAR_RESTART
           2.8345899999999999E+00
           0.0000000000000000E+00
           1.0000000000000000E+00
           2.6499999999999999E+00
     &END COLVAR_RESTART
   &END CONSTRAINT
   &PRINT
     &TRAJECTORY  SILENT
       &EACH
         MD  5
       &END EACH
     &END TRAJECTORY
     &VELOCITIES  SILENT
       &EACH
         MD  5
       &END EACH
     &END VELOCITIES
     &FORCES  SILENT
       &EACH
         MD  5
       &END EACH
     &END FORCES
     &RESTART  SILENT
       &EACH
         MD  1
       &END EACH
     &END RESTART
     &RESTART_HISTORY  SILENT
       &EACH
         MD  500
       &END EACH
     &END RESTART_HISTORY
   &END PRINT
 &END MOTION
 &FORCE_EVAL
   &DFT
     CHARGE  -1
     &SCF
       MAX_SCF  150
       EPS_SCF     9.9999999999999995E-07
       SCF_GUESS  CORE
       &OT  T
         MINIMIZER  DIIS
         N_HISTORY_VEC  7
         PRECONDITIONER  FULL_SINGLE_INVERSE
       &END OT
       &OUTER_SCF  T
         EPS_SCF     9.9999999999999995E-07
         MAX_SCF  150
       &END OUTER_SCF
       &MIXING  T
         METHOD  DIRECT_P_MIXING
         ALPHA     2.0000000000000001E-01
       &END MIXING
     &END SCF
     &QS
       METHOD  DFTB
       &DFTB
         SELF_CONSISTENT  T
         DO_EWALD  T
         DISPERSION  T
         &PARAMETER
           PARAM_FILE_PATH /scratch/usr/hbcmaxdp/polito/amides/2b/INFREQUENT/DFTB/scc/
           PARAM_FILE_NAME scc_parameter
           UFF_FORCE_FIELD uff_table
         &END PARAMETER
       &END DFTB
     &END QS
     &POISSON
       &EWALD
         EWALD_TYPE  SPME
         ALPHA     3.4999999999999998E-01
         GMAX  25
         O_SPLINE  5
       &END EWALD
     &END POISSON
   &END DFT
   &SUBSYS
     &CELL
       A     1.7000000000000000E+01    0.0000000000000000E+00    0.0000000000000000E+00
       B     0.0000000000000000E+00    1.7000000000000000E+01    0.0000000000000000E+00
       C     0.0000000000000000E+00    0.0000000000000000E+00    1.7000000000000000E+01
       MULTIPLE_UNIT_CELL  1 1 1
     &END CELL
     &COORD
S    6.5921834223079481E+00    7.4454003811753697E+00    5.8233544895187563E+00
O    6.9266437888992227E+00    2.7608163949150755E+00    1.0487437993328996E+01
O    2.1319341489331474E+00    2.0777983051768967E+00    9.6114197277866165E+00
O    7.9316269020229297E+00    5.4426577835025549E+00    6.5601221590469514E+00
N    7.0043800778098575E+00    4.6237342243179258E+00    8.5053188368527906E+00
C    5.7527125815266489E+00    4.1565846487032960E+00    8.8842770149628123E+00
C    5.6961595999401258E+00    3.0248827733107602E+00    9.8198595542831857E+00
C    4.6494335479050122E+00    4.3945726066551458E+00    8.0747684340846515E+00
C    4.4571934534845106E+00    2.3832508638781804E+00    1.0057665255980067E+01
C    3.3508601597678220E+00    2.7280363521726874E+00    9.3337065584912295E+00
C    3.4261525759787799E+00    3.7369999616954841E+00    8.3771241764504456E+00
C    7.4581961621210127E+00    5.8098895133924637E+00    7.8940433181997625E+00
C    6.4857762802286087E+00    6.9483177429260925E+00    7.4862955069742920E+00
C    5.7185366147597607E+00    7.8321038608381315E+00    8.2979704443093922E+00
C    5.3002810200759605E+00    8.9170032143936311E+00    7.4689052090054808E+00
C    5.7519320291796658E+00    8.9190324603329838E+00    6.1253140759423017E+00
C    6.8478930353107463E+00    2.3345541366638112E+00    1.1905426620518625E+01
C    9.7003297075544515E-01    2.5344781463288770E+00    8.9580325522392048E+00
H    4.7768628884439908E+00    5.2325752349213985E+00    7.3216239042167013E+00
H    4.4058889072317324E+00    1.5846140981407371E+00    1.0776135911723756E+01
H    7.6620554528276692E+00    4.4554645234167189E+00    9.2792303439358115E+00
H    2.5185110614973110E+00    3.9848770718519404E+00    7.8043291296022721E+00
H    5.5910180258231978E+00    7.7636585172186576E+00    9.4006615311434558E+00
H    4.9456150108290746E+00    9.8351484745233790E+00    7.9570903708284542E+00
H    5.4435497463615388E+00    9.6216496948080721E+00    5.3894234643278018E+00
H    6.3276230280990751E+00    1.3352298437971821E+00    1.2077907100741236E+01
H    6.3746929054967234E+00    3.1627530647137232E+00    1.2416803941535898E+01
H    7.8616898472392904E+00    2.3120869432027149E+00    1.2187469269298628E+01
H    9.9581063845169335E-02    2.0136702192005456E+00    9.5020754266556100E+00
H    7.8767620665096683E-01    3.6192374908447000E+00    9.0443185093783551E+00
H    1.0644923361203247E+00    2.2552694246197191E+00    7.9075744014225204E+00
O    4.3104892659093865E+00    2.0515580790338079E+00    5.5214879766311036E+00
H    4.6491197554407604E+00    2.9281089106106242E+00    5.1773600933769188E+00
H    5.0537064302987345E+00    1.4462158083977665E+00    5.2324334282528771E+00
O    2.3310763203901326E+00    1.8902767670383575E+01    1.2357946058856076E-01
H    2.2135630996062070E+00    1.9567989681541118E+01    8.3612940154014526E-01
H    1.7025141306786613E+00    1.8196279020040105E+01    3.9987776561405020E-01
O   -5.3787384405736987E+00    1.9369407276067083E+01    2.1713797624357896E+00
H   -5.3962704886835624E+00    1.8476021606158330E+01    1.7725453780632383E+00
H   -5.6950882206109776E+00    1.9361907929344614E+01    3.0569451105829719E+00
O    1.0646138782493445E+01    5.7966740849459804E+00    6.8618484520746543E+00
H    9.6694671100041365E+00    5.4636027916066245E+00    6.8541196490579042E+00
H    1.0749114525821142E+01    6.3179376918194619E+00    7.6643488261956110E+00
O    2.4447913961329391E+01    1.4008203903862741E+01    5.4666886065235563E+00
H    2.5188011830545101E+01    1.4422406703613932E+01    5.9382153614653648E+00
H    2.3633573081195632E+01    1.4216139607608309E+01    6.0616402769656368E+00
O    1.7035788015691997E+00    1.9688562371810335E+01   -3.8895801289507652E+00
H    1.1384685276253308E+00    1.9251357972076359E+01   -3.2054355062223632E+00
H    1.7457412116546305E+00    1.9027028065935998E+01   -4.5667812036009279E+00
O   -4.3563804990734067E-01   -9.6003117561684370E-01    9.4632793521539575E+00
H   -1.3109353728299611E+00   -1.4090823230048626E+00    9.5795579602712699E+00
H    2.2451509982396003E-01   -1.6199711092406563E+00    9.1674312701445917E+00
O    2.2043007919796565E-02    9.7149186734594366E+00    2.2244676623102144E+01
H   -9.3814772548367037E-02    8.8624355436373499E+00    2.1740056216185369E+01
H    1.1721521879590109E-01    1.0322131081661613E+01    2.1514652086698700E+01
O    1.1541731331287757E+01   -1.0523010665209824E+00    3.6983910311481569E+00
H    1.1649439717587976E+01   -1.3839620478104078E+00    4.5944019822328928E+00
H    1.1003939086175766E+01   -1.8855802921257453E-01    3.6056535037007675E+00
O    6.8394455723172758E+00    1.2297991656532375E+01   -8.7900621600797404E+00
H    6.9048978611535663E+00    1.3153367097742514E+01   -8.3645745403503611E+00
H    6.8968697996742181E+00    1.1613538955391649E+01   -8.0155570099358791E+00
O    3.1195036318953795E+00    1.0476244390447802E+01    1.9371757093262730E+01
H    3.2092568541278901E+00    1.0072881869045780E+01    1.8505740791613434E+01
H    2.8375024968058757E+00    9.7713064249332078E+00    2.0011979199086277E+01
O    1.4978169498940368E+01   -2.7766440094862044E+00    6.9983629866276109E+00
H    1.5810927251361063E+01   -2.3374175582702423E+00    6.7211113121143100E+00
H    1.4245663889326904E+01   -2.3554491332200223E+00    6.5318379326321656E+00
O    1.0593499272179276E+01    1.5602001826946215E+00    1.6323461021700485E+01
H    1.0758293609882443E+01    6.3935701961527425E-01    1.6075745530433615E+01
H    9.7556908435524825E+00    1.5097129135095331E+00    1.6857572260955550E+01
O    1.8732646921072444E+01    4.6865832175771907E+00   -6.4035470317585341E-01
H    1.7974922838453416E+01    4.7099530486322969E+00   -1.2803507142786041E+00
H    1.9278606590703745E+01    3.9706577459607648E+00   -1.0600618754069546E+00
O    5.1358613645007063E+00    8.3860250622556709E+00    1.7019543029954971E+01
H    5.4531462404830489E+00    7.8425292983026980E+00    1.7750015842656715E+01
H    5.4080271526523980E+00    8.0208484647650753E+00    1.6203048256435316E+01
O    1.4367695554898265E+01   -5.5692346882643848E+00    7.2010495907005021E+00
H    1.4399594812220966E+01   -5.1636894714533064E+00    6.2543725252882627E+00
H    1.3940148634855992E+01   -4.8716796451489035E+00    7.7882430234646058E+00
O    1.4469718749531703E+01    1.2766034357122642E+01    1.3778769782579985E+00
H    1.4268751956355622E+01    1.1801073867342133E+01    1.2632819536648301E+00
H    1.3583828766988871E+01    1.3144853340511531E+01    1.6542646475491014E+00
O    8.4328055649974090E+00    6.4881060426122890E+00    8.8157895808977340E+00
H    7.8971319757312362E+00    6.5355839492591636E+00    9.6925367210290858E+00
O    4.6956532236660200E+00    1.7192039859009004E+01    1.2444783984175340E+01
H    5.3100098120902723E+00    1.6621744304263498E+01    1.2921424600834394E+01
H    3.8252964922790524E+00    1.6975678710272941E+01    1.2859490875815123E+01
O    1.4423446555137010E+01    4.2724168072482192E+00    4.0456343954337761E+00
H    1.3888388006086567E+01    4.3650162331116942E+00    4.8595975719017295E+00
H    1.3957076919597400E+01    3.5946647105214344E+00    3.5206342557571353E+00
O    2.6512359819893057E+00   -9.7000256276880847E+00   -1.1341873051233129E+01
H    3.0490868319120357E+00   -9.3633306109703387E+00   -1.2156099937615235E+01
H    3.3001064213861557E+00   -9.9656973485089164E+00   -1.0637273055971725E+01
O    7.7100016658383677E+00    1.4633004351282406E+01    1.6588552086814790E+01
H    6.8966987723053714E+00    1.4918450393196485E+01    1.7036456228034130E+01
H    8.1219693487129998E+00    1.3826080827314190E+01    1.6982635854426764E+01
O    1.8703975106870050E+01   -5.1489361686250890E+00    2.7460518941322238E+01
H    1.8527336948989728E+01   -4.3315801837794430E+00    2.7049956104055703E+01
H    1.7942603370006520E+01   -5.6434932954913055E+00    2.7686691658223413E+01
O    1.9164522131883498E+01    2.3153048088846564E+00    3.2768425672214883E+00
H    1.9818242731018504E+01    2.5533057917076336E+00    3.9559633378033254E+00
H    1.8377946602789763E+01    2.1071293926210162E+00    3.7530430995648496E+00
O    9.0943513768781354E+00    1.2404772405539898E+01    1.7189459956244878E+01
H    1.0054690031150809E+01    1.2155123459922903E+01    1.7014046422068848E+01
H    8.6211136447608716E+00    1.1661516838087211E+01    1.6707898322148544E+01
O   -1.5864924944570541E+01    1.7623904883790711E+01    1.1433051455693048E+01
H   -1.6779607790871502E+01    1.7411742429292929E+01    1.1134049486258645E+01
H   -1.5298304675962907E+01    1.7269268008157574E+01    1.0764392504590916E+01
O    1.9208906444893771E+01    8.5954894085055109E+00    8.7439295491778921E+00
H    1.9679393820532006E+01    8.7050032980736081E+00    9.5888219912043002E+00
H    1.9555341391474098E+01    9.0576677213788628E+00    8.0370892759494659E+00
O    2.6889409818681114E+00   -5.2194793773267245E-02    6.7359305827957323E+00
H    3.2543036016312374E+00    6.7439533847314803E-01    6.3924589600981072E+00
H    3.0904704260242521E+00   -1.8711349809204472E-01    7.6610808027139949E+00
O    9.3075331140467945E+00    2.7294969143318895E+00    7.3596269762578057E+00
H    8.6186902828107073E+00    2.9073762506865450E+00    6.7169949913724665E+00
H    9.7118901789567449E+00    3.4971065226568534E+00    7.7822281288395665E+00
O    6.8496105583493605E-01    6.0294425034177541E+00   -9.9543865580741144E+00
H    1.0151179655623530E+00    6.0963391999118954E+00   -9.0630536519375013E+00
H    7.5121975130094398E-01    6.8581235748477329E+00   -1.0390732690261849E+01
O    1.3374032285952435E+01   -2.9173775995285096E+00   -1.5905947401453988E+00
H    1.4021258436177579E+01   -2.7555653347560303E+00   -2.3453484890834977E+00
H    1.3858351716282552E+01   -2.7095955112380783E+00   -7.8834753729897311E-01
O    1.4005206173599321E+01    1.2349675028161956E+01    4.5887698276074618E+00
H    1.3504307722434575E+01    1.1683966889315105E+01    4.0755047390760124E+00
H    1.3574072911501020E+01    1.3191421215852206E+01    4.5064264271462324E+00
O    1.7337787969281170E+01    9.7027014491090746E+00    2.6759479861293684E-01
H    1.8276796962915029E+01    9.5373471427991880E+00    6.7114285509996638E-02
H    1.7096853876509517E+01    1.0603773827238664E+01   -2.2764531766909270E-02
O    8.6341639539330295E+00    1.5585981972396109E+01    1.2220099592512941E+01
H    8.9221006359908515E+00    1.6085251347826862E+01    1.1458118727804038E+01
H    8.9516542871345450E+00    1.4659067032258440E+01    1.2021538186996738E+01
O    4.1795181646097781E+00    1.0952853092026146E+01   -6.6903283671121407E+00
H    3.7590850653852730E+00    1.0920660433797858E+01   -7.5751092800230504E+00
H    3.5548223615228784E+00    1.0494886379273071E+01   -6.1508088166223169E+00
O    6.9711119813855307E+00    1.9354662471195017E+01   -1.2841418028553977E+00
H    6.3510777002705705E+00    1.9979957259352069E+01   -1.6289387261767556E+00
H    7.1423126390532250E+00    1.8602467868730855E+01   -1.8690879406552474E+00
O    3.4041676363700807E-01    1.3132584111620373E+01    5.7304332425760309E+00
H   -4.3283195402596053E-01    1.2644431216992293E+01    5.5401443875347356E+00
H    8.1756233975026904E-01    1.3093361291200816E+01    4.8823678410825062E+00
O   -1.7747661376730699E+00    8.1763777932165258E+00    7.1900763004497010E+00
H   -2.5634745080037491E+00    8.0981875403767436E+00    6.6518044629337369E+00
H   -1.2223951066924845E+00    8.8772890101742306E+00    6.6964710268239571E+00
O    2.6316678690179199E+01    1.1844511508034284E+01    4.0116784624768664E+00
H    2.6014416903821093E+01    1.0922461065939414E+01    3.8563005626843245E+00
H    2.5802339213388350E+01    1.2275558700268357E+01    3.3220016523056120E+00
O    1.5933179031739442E+01    1.4119241728751552E+01   -3.0973446432095226E+00
H    1.6009598166139028E+01    1.4906506741283888E+01   -3.6750830326190811E+00
H    1.6370058752936721E+01    1.4376282531782087E+01   -2.2386119311762354E+00
O    1.8289844124413595E+01    9.6309830448401339E+00   -4.8882387121683584E+00
H    1.7457138731950977E+01    9.2678140356479428E+00   -4.6204301745287442E+00
H    1.8295781895089057E+01    1.0555446980589576E+01   -4.6157019167089750E+00
O    4.9985500126077440E+00    4.9511876661862182E+00    1.6131621739420034E+01
H    4.6359745635114491E+00    4.2760997143396846E+00    1.5579815283083477E+01
H    4.2332497433800071E+00    5.2900258581805089E+00    1.6628049043204040E+01
O    1.3053044440362905E+01    1.4760851643283193E+01   -6.1626820831433360E+00
H    1.3086960454153282E+01    1.5718682827631726E+01   -6.0598917764598976E+00
H    1.2994986175773132E+01    1.4336709005516695E+01   -5.2735000968732280E+00
O    4.9519392448542003E+00    1.4741608446048669E+01    9.8410512675716433E+00
H    4.7616434019403417E+00    1.5324090021239526E+01    1.0595594965284194E+01
H    5.3646453919581898E+00    1.3929077371086098E+01    1.0243453135923422E+01
O    5.4473021549918221E-01    2.3530331766532328E-01    1.4236596639073452E+01
H    5.0734129009264195E-01    3.2601879243955112E-01    1.5198547988420277E+01
H    1.3863484373321113E+00   -1.1822885905113860E-01    1.4027818226604037E+01
O    1.1876822468210724E+01   -1.0202201360534936E+01    3.9666475182675782E+00
H    1.2726557186993682E+01   -9.7448026625250321E+00    4.0097982935209044E+00
H    1.1622367975064945E+01   -1.0233428184326574E+01    4.8868864141043282E+00
O   -8.8905110028810808E-01    7.5663629021661132E+00   -7.0806517970317193E+00
H   -1.4054919671515331E+00    7.4840974476302433E+00   -7.8670540021985955E+00
H   -7.2563717164379149E-01    8.4947885722422320E+00   -6.8852815724886129E+00
O   -4.0394126603120792E+00    2.7021116680953901E+00    1.2237295955474472E+01
H   -3.0634915375523546E+00    2.7425295088856672E+00    1.2284004159543878E+01
H   -4.3874937396685576E+00    3.6229024975450024E+00    1.2436864392410440E+01
O    1.5248916686732718E+01    4.0146902358156193E+00    8.8650424596249664E+00
H    1.4666259235710621E+01    4.5428581509456558E+00    9.4306110241039658E+00
H    1.5170054752354925E+01    4.4499240250821321E+00    8.0275991239875228E+00
O    2.5836403619849275E+01    7.4481723315578963E+00    1.4177858254639087E+01
H    2.6664906232457174E+01    6.9270097508061186E+00    1.4064722535584036E+01
H    2.6070134721318190E+01    8.3952682210254324E+00    1.4170914161372943E+01
O    1.4904431006182806E+01    1.0042952742009867E+01    1.9042297587556138E+01
H    1.5768780416713589E+01    1.0486330911118708E+01    1.9206172828538421E+01
H    1.5179729487795230E+01    9.1028218822814413E+00    1.8794520641780089E+01
O    4.6406162071771879E+00    5.3131214243364084E+00    1.2122791228277764E+01
H    5.1682799025061321E+00    4.9765523815137875E+00    1.2848991927547923E+01
H    4.0127235386414899E+00    4.6575542083746306E+00    1.1787337965217414E+01
O    1.4000445278154293E+01    1.9015440514497186E+01   -1.0458590353402405E+01
H    1.3543491385161001E+01    1.8310618962413869E+01   -9.9585538793252795E+00
H    1.3385128593764318E+01    1.9774655277516139E+01   -1.0309435440242115E+01
O   -2.5405565101840860E-01   -8.9856686750096912E+00    2.7470364186956924E+00
H    8.8675660898610800E-02   -8.4584422515950060E+00    2.0271380676639188E+00
H   -4.1090290698558873E-01   -9.8730580300812356E+00    2.3052766245424752E+00
O    1.0761761413878419E+00    5.2653768526068578E+00    2.0909437903467520E+01
H    1.2306589024043046E+00    5.0336348606473784E+00    2.1857813237534184E+01
H    7.6175016588904565E-01    6.1683364700980086E+00    2.0932714803962302E+01
O    1.2388863327012407E+01   -7.6036996556471896E+00    2.4231085774430145E+01
H    1.3143685928978762E+01   -6.9734608912138141E+00    2.4392665460486718E+01
H    1.1921354237290286E+01   -7.3188366983833095E+00    2.3427757099808019E+01
O    1.1451542973131353E+01   -1.5435741581791260E+00    1.7371485862730975E+01
H    1.0529403533088423E+01   -1.7478632587782623E+00    1.7568406636392833E+01
H    1.1577213188455959E+01   -1.8521446112984192E+00    1.6509117144106376E+01
O    2.1261454160628265E+01    1.2375813974653047E+01    3.9900795470616930E+00
H    2.0771978915027411E+01    1.1733542223323015E+01    3.3719423062926017E+00
H    2.0684494142643544E+01    1.2582607951476026E+01    4.7314643623550312E+00
O    4.9872574859648040E+00    1.8259722684835555E+01    1.5287131168562713E+00
H    5.6418926248934698E+00    1.8403630305850623E+01    2.2734244272879742E+00
H    4.1746618646388827E+00    1.8733396419771029E+01    1.7602123220687900E+00
O    9.5527600367415069E+00    7.9850649265090450E+00    1.9772349913178086E+01
H    1.0351712346525328E+01    7.4578812094214282E+00    1.9548745473939185E+01
H    9.4679954193957663E+00    8.6272704992678797E+00    1.9055150436763338E+01
O   -4.9216281705164926E+00    5.9005399670602490E+00    1.1389093921914212E+01
H   -4.5621662579568758E+00    5.8659144727932002E+00    1.0460498090919657E+01
H   -5.5525855136112172E+00    6.7276588276910108E+00    1.1329628913292822E+01
O    2.2705990865147836E+01    1.4648124753501758E+01   -3.5140357907821564E+00
H    2.3265936453973499E+01    1.4633315181912439E+01   -2.7425684337357725E+00
H    2.1948742539803497E+01    1.4040403578488885E+01   -3.4145907103006174E+00
O    6.6239763069068287E+00    1.7060617323867728E+01    9.2704479637922415E+00
H    6.5690183589873525E+00    1.8017316473402648E+01    9.3305962385392434E+00
H    6.4934010595538609E+00    1.6703621520176075E+01    1.0150098025263718E+01
O    7.1422954540305907E+00    1.2918565249355062E+01    2.4544641988049833E+00
H    6.1871322005233980E+00    1.2856242651478423E+01    2.4092730210459674E+00
H    7.2686809535521197E+00    1.3303468285692814E+01    3.3559987617438511E+00
O    1.1463185961446403E+01    1.5625000971208813E-01    2.8637919559974492E+01
H    1.2186777571441050E+01    8.6307034354681345E-01    2.8796891796538695E+01
H    1.0805989543425969E+01    6.5822346103451168E-01    2.8011421855797636E+01
O    1.0155390290635269E+01   -2.3557951639659076E+00    9.0726348819648717E+00
H    1.0359029442697821E+01   -3.2126681052305610E+00    8.6567885024637317E+00
H    1.0965765452440808E+01   -1.9089224567356304E+00    8.9771002282396335E+00
O    2.2866154052482468E+01    1.6948453437616632E+01    4.8690082714492027E+00
H    2.2900739109170509E+01    1.6650237553957613E+01    5.7605999123963594E+00
H    2.3774573972219258E+01    1.7048212041673576E+01    4.5395212934278435E+00
O   -6.8455593773144718E-01    4.7009894938379562E+00    8.4518499352711207E-01
H    2.8241220219510099E-01    4.9547336894975587E+00    8.4986702350715615E-01
H   -8.2479195776859382E-01    3.7797203405452602E+00    1.1815561831106540E+00
O    2.2903175226582942E+01   -9.5082582309989938E+00   -3.1387814932922047E+00
H    2.2932136083114170E+01   -8.8011356593512478E+00   -3.8209682646501593E+00
H    2.3864295925954004E+01   -9.6699076590740525E+00   -2.9720426129512503E+00
O    2.0385318220424665E+01    4.6941322636832004E+00    2.1883103217145936E+00
H    1.9435534001863768E+01    4.5655001836978588E+00    2.2018422404756404E+00
H    2.0699727096379057E+01    4.7588279460962664E+00    3.1580613135688167E+00
O    3.3760589413188327E+00    6.5566198266169993E+00   -2.0408930594499730E+00
H    2.9965157324661877E+00    5.9701084634923278E+00   -2.7391273324902854E+00
H    4.2535307834316276E+00    6.8580114908433485E+00   -2.2915042824658136E+00
O    1.1973678151162131E+01    1.7405202030316072E+01   -9.2463238330196820E+00
H    1.1101362258246700E+01    1.7079370341206623E+01   -9.3935753812108960E+00
H    1.2013077749109277E+01    1.7825050990891331E+01   -8.3826051911027673E+00
O    1.0610877029231087E+01   -8.9918372043648354E-01    1.4054411829316969E+01
H    1.0755146646496144E+01   -6.4779761235609701E-01    1.3089496664913968E+01
H    1.1269456803057663E+01   -3.3047865676382976E-01    1.4526625073533650E+01
O    8.0314771000579732E+00    1.6962337155140073E+01    1.4585047148734633E+01
H    8.1524816191021507E+00    1.6341302889732702E+01    1.5289923363945837E+01
H    8.7073078336222149E+00    1.6757457111172496E+01    1.3909372170335827E+01
O    1.1140117693062704E+01    8.6254314728140820E+00    9.7378085053768118E-02
H    1.1248279049077844E+01    8.6324672667038040E+00   -8.3865347570652204E-01
H    1.1806342424705401E+01    8.1111235932643435E+00    5.2044286621433355E-01
O    1.7204723319458530E+01    1.7069700730062149E+01    1.9048662412935094E-01
H    1.6268543621113945E+01    1.7352020877935828E+01    3.0104626410033913E-01
H    1.7225393398305116E+01    1.6103212971426682E+01   -7.7892242383014842E-02
O    1.8212558468760029E+01    5.6155929478296729E+00    1.0387813662635681E+01
H    1.7296186880630106E+01    6.0746109895039782E+00    1.0489228802397612E+01
H    1.8831126849909058E+01    6.2845453485522338E+00    1.0045917039113876E+01
O    1.0132263591825902E+01    2.5696991223044126E+01    5.4902189629897116E+00
H    9.1442271864285622E+00    2.5570965770065762E+01    5.5586002672998402E+00
H    1.0686238189025147E+01    2.5034088653713400E+01    5.8964398868245880E+00
O    8.8240511771608450E+00    2.1088521863663598E+01    4.4128400860154118E+00
H    8.8034356578186603E+00    2.1708433497653530E+01    3.7207417967943375E+00
H    8.5548879253663852E+00    2.1485888926523284E+01    5.2684155896416893E+00
O   -1.1808550285056507E+00   -7.9162529396629804E+00    1.3051616867726551E+01
H   -1.5002803898589243E+00   -8.8561773336924468E+00    1.3168064514043904E+01
H   -1.9127741900510933E+00   -7.5884548499036049E+00    1.2416927450169123E+01
O    2.0624197469500192E+01   -8.8991787255152588E-01    3.0753792663960189E+00
H    2.1257305067807287E+01   -1.2137568918344843E+00    3.7066398048913856E+00
H    2.0991566336454806E+01   -2.2791742337806656E-01    2.4907979923232753E+00
O    7.6707142562893029E+00    6.6124649544687459E+00    1.7248366121692477E+01
H    8.5254379066486319E+00    6.4968095943973774E+00    1.7772656735484109E+01
H    7.4618788221189254E+00    5.6508156313328017E+00    1.7022367806351429E+01
O    1.7748001397642341E+01    5.7695849732340205E+00   -3.8555163437764928E+00
H    1.8443244411593440E+01    5.0962906710832145E+00   -3.8868375364743670E+00
H    1.7601701196587346E+01    6.0333493180774367E+00   -4.7593894051263943E+00
O    1.2532090199163765E+01    7.5219375422052037E+00   -2.6503790067828108E+00
H    1.3002150174433503E+01    7.6279210066849794E+00   -3.4205624918185435E+00
H    1.3183525861625064E+01    7.9295795212033360E+00   -2.0302319414365160E+00
O    5.5612576864873153E-01    1.6917253252498888E+01    2.0216104690207974E+01
H    1.3163174029091966E+00    1.6793802353819689E+01    1.9681725730040760E+01
H   -2.0538317918130453E-01    1.7339311689892629E+01    1.9854805320094048E+01
O   -1.7461764319085358E+00   -8.6431948398209335E-01   -4.6925335797604362E+00
H   -2.0077162241005122E+00   -1.3079132036216143E-01   -4.1613789088646547E+00
H   -1.3517540717294396E+00   -5.8720760514642856E-01   -5.5583012354976749E+00
O    1.1339650484940567E+01    1.0705315858546703E+01    9.4473713166813962E+00
H    1.1014774400984537E+01    1.0910191522696365E+01    8.5374184678893670E+00
H    1.0845517843390400E+01    1.1116412025661981E+01    1.0160689776390173E+01
O    4.2961349971470915E+00    8.0615803737018936E+00    1.1284889313390536E+01
H    3.8906349241105826E+00    8.3138047247188460E+00    1.2150159849456468E+01
H    4.4544111541176274E+00    7.1377608778121804E+00    1.1333521332895048E+01
O    1.4389424757424825E+01    1.8154407833728580E+01   -2.4296501813219700E+00
H    1.3507106652227090E+01    1.8604828648049054E+01   -2.2524603030006900E+00
H    1.5093789464330518E+01    1.8864879646014682E+01   -2.2826659797637303E+00
O    2.0111817660202576E+01    7.8618366755919871E+00    3.0990916199463325E+00
H    2.0984005147061282E+01    7.8468956620826349E+00    2.6863509845773423E+00
H    1.9609111467513500E+01    7.1583541311578340E+00    2.6627741082662424E+00
O    2.3874601898635138E+01    9.9867184038587755E+00    1.0974439705835783E+01
H    2.4454642191765569E+01    9.8955135797488865E+00    1.0205537405445371E+01
H    2.2924069365143232E+01    1.0178141547074299E+01    1.0785474205361535E+01
O   -8.4248751997255127E+00    9.8780297597123656E+00    8.3427575842533024E+00
H   -8.2781131244842943E+00    1.0034539498820026E+01    7.3752684024250952E+00
H   -8.3919422909628683E+00    8.9028005545056139E+00    8.4739896468981222E+00
O    5.6466837539832158E+00   -1.5625815628718844E+00    7.3533528630732139E+00