%chk=4.chk
%nprocshared=8
%mem=16GB
# B3lyp/6-31G* scf=(tight,XQC) opt
integral=(grid=ultrafine) pop=(MK,readradii) IOp(6/33=2,6/41=10,6/42=17) geom=connectivity 

NONE   2

0 1
C                        0.42500000   -0.00700000    0.00000000
C                        2.53400000    1.45000000    0.00000000
C                        2.53000000   -0.72400000    1.26000000
C                        2.53000000   -0.72400000   -1.26000000
C                        0.99600000    1.44500000   -0.00100000
C                        0.99100000   -0.72100000    1.26400000
C                        0.99000000   -0.72200000   -1.26300000
C                        3.04200000    0.72400000    1.25300000
C                        3.04100000    0.72300000   -1.25400000
C                        3.03200000   -1.44700000    0.00000000
C                       -1.06600000   -0.00400000    0.00000000
C                       -1.76000000    1.20600000    0.00000000
C                       -1.76600000   -1.21000000    0.00000000
C                       -3.15500000    1.20900000    0.00000000
C                       -3.16100000   -1.20700000    0.00000000
C                       -3.85600000    0.00300000    0.00000000
C                       -5.34700000    0.00700000    0.00000000
H                        2.90000000    2.48300000   -0.00100000
H                        2.89800000   -1.24000000    2.15400000
H                        2.89800000   -1.24100000   -2.15300000
H                        0.66300000    2.00000000    0.88700000
H                        0.66300000    1.99900000   -0.88900000
H                        0.64000000   -1.75900000    1.31900000
H                        0.62500000   -0.22500000    2.17300000
H                        0.62400000   -0.22600000   -2.17300000
H                        0.63900000   -1.76000000   -1.31800000
H                        4.13800000    0.73400000    1.27500000
H                        2.70100000    1.24700000    2.15500000
H                        2.70100000    1.24600000   -2.15600000
H                        4.13800000    0.73300000   -1.27600000
H                        4.12900000   -1.47900000    0.00000000
H                        2.68400000   -2.48700000    0.00100000
H                       -1.29100000    2.18200000    0.00000000
H                       -1.25100000   -2.16600000    0.00000000
H                       -3.68600000    2.15800000   -0.00200000
H                       -3.69600000   -2.15300000   -0.00200000
H                       -5.74500000   -0.87600000    0.51300000
H                       -5.74000000    0.88500000    0.52300000
H                       -5.72200000    0.01300000   -1.02800000

1 5 1.0 6 1.0 7 1.0 11 1.0
2 5 1.0 8 1.0 9 1.0 18 1.0
3 6 1.0 8 1.0 10 1.0 19 1.0
4 7 1.0 9 1.0 10 1.0 20 1.0
5 21 1.0 22 1.0
6 23 1.0 24 1.0
7 25 1.0 26 1.0
8 27 1.0 28 1.0
9 29 1.0 30 1.0
10 31 1.0 32 1.0
11 12 1.5 13 1.5
12 14 1.5 33 1.0
13 15 1.5 34 1.0
14 16 1.5 35 1.0
15 16 1.5 36 1.0
16 17 1.0
17 37 1.0 38 1.0 39 1.0
18
19
20
21
22
23
24
25
26
27
28
29
30
31
32
33
34
35
36
37
38
39


