 # Version information for this restart file 
 # current date 2021-02-08 16:58:39.834
 # current working dir /gpfs/scratch/userexternal/mdellepi/2b/2b_cis_34/basic_conds/equilibration_333K/OH_constr
 # Program compiled at                              Mon Jan 25 11:20:18 CET 2021
 # Program compiled on                                                r033c01s03
 # Program compiled for                                       Linux-x86-64-intel
 # Source code revision number                                       git:0b61f2f
 &GLOBAL
   PRINT_LEVEL  LOW
   PROJECT_NAME amides
   RUN_TYPE  MD
   WALLTIME 86400
 &END GLOBAL
 &MOTION
   &MD
     ENSEMBLE  NVT
     STEPS  60000
     TIMESTEP     4.9999999999999994E-01
     STEP_START_VAL  7322
     TIME_START_VAL     3.6609999999996335E+03
     ECONS_START_VAL    -6.9241873852427796E+02
     TEMPERATURE     3.3300000000000000E+02
     &THERMOSTAT
       TYPE  CSVR
       REGION  GLOBAL
       &CSVR
         TIMECON     9.9999999999999982E+00
         &THERMOSTAT_ENERGY
               8.1873454926311040E-02
         &END THERMOSTAT_ENERGY
         &RNG_INIT
Wiener process for Thermostat # 1        1 F T F   1.4312521886369522E+00        3125211624.0        2849280170.0        3665272687.0        1826152967.0          25790143.0         768530924.0             12345.0             12345.0             12345.0             12345.0             12345.0             12345.0             12345.0             12345.0             12345.0             12345.0             12345.0             12345.0
         &END RNG_INIT
       &END CSVR
     &END THERMOSTAT
     &AVERAGES  T
       &RESTART_AVERAGES
         ITIMES_START  1
         AVECPU     6.7411861977138221E-01
         AVEHUGONIOT     0.0000000000000000E+00
         AVETEMP_BARO     0.0000000000000000E+00
         AVEPOT    -6.9334625125138791E+02
         AVEKIN     8.0419321274358935E-01
         AVETEMP     3.3260488356259839E+02
         AVEKIN_QM     0.0000000000000000E+00
         AVETEMP_QM     0.0000000000000000E+00
         AVEVOL     3.3154567806721156E+04
         AVECELL_A     3.2125344259055929E+01
         AVECELL_B     3.2125344259055929E+01
         AVECELL_C     3.2125344259055929E+01
         AVEALPHA     9.0000000000000000E+01
         AVEBETA     9.0000000000000000E+01
         AVEGAMMA     9.0000000000000000E+01
         AVE_ECONS     5.3001618090914436E-02
         AVE_PRESS     0.0000000000000000E+00
         AVE_PXX     0.0000000000000000E+00
       &END RESTART_AVERAGES
     &END AVERAGES
   &END MD
   &CONSTRAINT
     CONSTRAINT_INIT  T
     &COLLECTIVE
       COLVAR  1
       INTERMOLECULAR  T
       TARGET     5.0000000000000000E+00
       &RESTRAINT
         K     5.9999999999999998E-01
       &END RESTRAINT
     &END COLLECTIVE
     &COLLECTIVE
       COLVAR  2
       INTERMOLECULAR  T
       TARGET     5.9340000000000004E-01
       &RESTRAINT
         K     5.9999999999999998E-01
       &END RESTRAINT
     &END COLLECTIVE
     &COLLECTIVE
       COLVAR  3
       INTERMOLECULAR  T
       TARGET     1.0000000000000000E+00
       &RESTRAINT
         K     5.9999999999999998E-01
       &END RESTRAINT
     &END COLLECTIVE
     &COLVAR_RESTART
           5.0000000000000000E+00
           5.9340000000000004E-01
           1.0000000000000000E+00
     &END COLVAR_RESTART
   &END CONSTRAINT
   &PRINT
     &TRAJECTORY  SILENT
       &EACH
         MD  5
       &END EACH
     &END TRAJECTORY
     &VELOCITIES  SILENT
       &EACH
         MD  5
       &END EACH
     &END VELOCITIES
     &FORCES  SILENT
       &EACH
         MD  5
       &END EACH
     &END FORCES
     &RESTART  SILENT
       &EACH
         MD  1
       &END EACH
     &END RESTART
     &RESTART_HISTORY  SILENT
       &EACH
         MD  500
       &END EACH
     &END RESTART_HISTORY
   &END PRINT
 &END MOTION
 &FORCE_EVAL
   &DFT
     CHARGE  -1
     &SCF
       MAX_SCF  150
       EPS_SCF     9.9999999999999995E-07
       SCF_GUESS  CORE
       &OT  T
         MINIMIZER  DIIS
         N_HISTORY_VEC  7
         PRECONDITIONER  FULL_SINGLE_INVERSE
       &END OT
       &OUTER_SCF  T
         EPS_SCF     9.9999999999999995E-07
         MAX_SCF  150
       &END OUTER_SCF
       &MIXING  T
         METHOD  DIRECT_P_MIXING
         ALPHA     2.0000000000000001E-01
       &END MIXING
     &END SCF
     &QS
       METHOD  DFTB
       &DFTB
         SELF_CONSISTENT  T
         DO_EWALD  T
         DISPERSION  T
         &PARAMETER
           PARAM_FILE_PATH /gpfs/scratch/userexternal/mdellepi/2b/DFTB/scc
           PARAM_FILE_NAME scc_parameter
           UFF_FORCE_FIELD uff_table
         &END PARAMETER
       &END DFTB
     &END QS
     &POISSON
       &EWALD
         EWALD_TYPE  SPME
         ALPHA     3.4999999999999998E-01
         GMAX  25
         O_SPLINE  5
       &END EWALD
     &END POISSON
   &END DFT
   &SUBSYS
     &CELL
       A     1.7000000000000000E+01    0.0000000000000000E+00    0.0000000000000000E+00
       B     0.0000000000000000E+00    1.7000000000000000E+01    0.0000000000000000E+00
       C     0.0000000000000000E+00    0.0000000000000000E+00    1.7000000000000000E+01
       MULTIPLE_UNIT_CELL  1 1 1
     &END CELL
     &COORD
S    6.1541869645439986E+00    7.1633398157999100E+00    3.4512051359459872E+00
O    1.1377794792931962E+01    9.0435791546874409E+00    7.0562632188514920E+00
O    9.5987829029598224E+00    6.0950686983830433E+00    1.0604707285657186E+01
O    9.1781991487684760E+00    7.6605317414541503E+00    3.1730491757571233E+00
N    9.6401358359748048E+00    7.9332570501799955E+00    5.3755804785539540E+00
C    9.5282996512699043E+00    7.4754662396161038E+00    6.7148530566093845E+00
C    1.0589920067575930E+01    7.9638398936391370E+00    7.5373406895387198E+00
C    8.5122404928960211E+00    6.5513276691863433E+00    7.2101167187953088E+00
C    1.0595263320494420E+01    7.6716179831524096E+00    8.8881392970895252E+00
C    9.6569128977667056E+00    6.6959129455089927E+00    9.3557535800368399E+00
C    8.6863335385060960E+00    6.0793410370886125E+00    8.5041041263264692E+00
C    8.7292505054520468E+00    7.8531790584612757E+00    4.3403408071095457E+00
C    7.3076241764296022E+00    7.9441128729159560E+00    4.5706666608223658E+00
C    6.5133538036590544E+00    8.5065492210584921E+00    5.6160433688672464E+00
C    5.1633877483941868E+00    8.2617159517098173E+00    5.5257727926419999E+00
C    4.7740463450710475E+00    7.5837337191973573E+00    4.4038694696157155E+00
C    1.2705740285517479E+01    9.3256545363142784E+00    7.6479565449087650E+00
C    9.9501819496063835E+00    6.8273095855352812E+00    1.1837597375391717E+01
H    7.7675466105261837E+00    6.0942802404128118E+00    6.5283799197958752E+00
H    1.1341806314528982E+01    8.1556425715887197E+00    9.5210401359854959E+00
H    1.0530309546977296E+01    8.3933194513207425E+00    5.1922829009999703E+00
H    8.0384307730663007E+00    5.3621687043152253E+00    8.9011385956542597E+00
H    6.9218255988370307E+00    9.0439765471237372E+00    6.5555230059414713E+00
H    4.4012213176416326E+00    8.5092901789946573E+00    6.2964018826323773E+00
H    3.7484660870777904E+00    7.3692105485969677E+00    4.0274279086838582E+00
H    1.2715419208360753E+01    9.9207177928841137E+00    8.5635675227572126E+00
H    1.3408282925718858E+01    9.8566254580102441E+00    6.9682724586270544E+00
H    1.3337559778382579E+01    8.3858359353172460E+00    7.9625676508335808E+00
H    9.7248213483457562E+00    7.9031603052569928E+00    1.1646478404375138E+01
H    9.3446803977474815E+00    6.4477478159044166E+00    1.2689777427376017E+01
H    1.1057544994968621E+01    6.6679550653085427E+00    1.2041545932820622E+01
O    5.4701902217837288E+00    1.9488361023236682E+00    4.3188729491186342E+00
H    4.9357399366182237E+00    2.6913459112355507E+00    4.1797296950227762E+00
H    6.3883268795369181E+00    2.2502188038021989E+00    4.1675997124178625E+00
O    1.7585616478093218E+01    1.5142701052488247E+01    1.0743849743814773E+00
H    1.7621699855589387E+01    1.5120189182815128E+01    2.0507874972636393E+00
H    1.8469303946461373E+01    1.5313619846664858E+01    7.7367175005595445E-01
O   -2.3107930244639627E+00    1.3439136794829128E+01    9.5244689082958782E+00
H   -1.4789926984425723E+00    1.3897153297089272E+01    9.8439154460683085E+00
H   -2.3173578185795236E+00    1.2592800415932725E+01    1.0035587627627185E+01
O    1.1399093387178292E+01    6.7948578296563920E+00    1.5937818629586271E+00
H    1.1058316335296340E+01    7.1303186627277944E+00    2.4615294458132544E+00
H    1.1947502369879754E+01    6.0407304846872956E+00    1.5755797895599821E+00
O    1.4500873151064459E+01    3.8112632356593164E+00    7.0322834247811885E+00
H    1.4600376263615995E+01    4.6776408753147676E+00    7.4724393704195471E+00
H    1.5337570063235789E+01    3.4210609927960389E+00    7.4443174200925251E+00
O   -2.1275275688449931E+00    1.3047027049911600E+01    6.0768318344853425E+00
H   -2.5753144125593175E+00    1.2324363115702358E+01    6.5494309633994368E+00
H   -2.5019172271974912E+00    1.3877843818602612E+01    6.4320428165916681E+00
O    1.1456926148815027E+01    3.7183797823004237E+00    7.5996967201290779E+00
H    1.0758001197498082E+01    3.9055404527870352E+00    8.1622413867904768E+00
H    1.1232744631589538E+01    2.8168880517027017E+00    7.3011863915776916E+00
O   -7.6378822339192709E+00    1.5246563860421702E+01    1.6076104614191706E+01
H   -7.0655215959715756E+00    1.5786742344761025E+01    1.6612353684764621E+01
H   -8.4514993016379218E+00    1.5096695857664239E+01    1.6588660633298886E+01
O    8.1929773795359786E+00    2.1457799324459383E+00    9.5687402075284052E+00
H    9.0006736718640283E+00    2.1662127684176538E+00    8.9542545601894901E+00
H    8.2587140660226126E+00    1.1882809810711505E+00    9.8936471372617127E+00
O   -1.7640718591492133E+00    4.9366358118579221E+00    2.1523516827709022E-01
H   -1.0586612895420184E+00    4.5864344185503469E+00    7.7209210920165694E-01
H   -2.4521783209238954E+00    4.2406339065578891E+00    3.2311116275831619E-01
O    2.5897364102552598E+00    5.9879811261689770E+00    1.3780030601558526E+01
H    2.4525914869890064E+00    6.7235336709190392E+00    1.3140626358755403E+01
H    1.7911877824151132E+00    5.7369261108558280E+00    1.4299716236208816E+01
O    1.1950314793616654E+01    1.6412407748089202E+00   -2.4805477199043278E+00
H    1.1160248619783475E+01    1.2413959163181474E+00   -2.8374350151911303E+00
H    1.2300468370349206E+01    1.0844246351197693E+00   -1.8275550860873042E+00
O    6.5091066378391504E+00    8.3125915100324352E+00    1.2816795545427635E+01
H    7.2244823414756780E+00    7.6911293939595913E+00    1.2930904269379834E+01
H    5.7804286731723451E+00    7.8067809191541686E+00    1.2412304909122801E+01
O    1.5585828732132878E+01    3.5125337809840218E+00    3.2528324406727540E+00
H    1.5609996860180177E+01    2.8636518761687375E+00    2.5288785312432069E+00
H    1.6128337174960766E+01    3.1391346640655700E+00    3.9342574249161850E+00
O    1.2152605801477648E+01    1.0051287048033075E+01    4.1118229084964515E+00
H    1.1083177833583512E+01    1.0088687537217272E+01    4.1189240740928161E+00
H    1.2339999692441541E+01    1.0014517523497457E+01    3.1387064561572893E+00
O    1.0426645058935121E+01   -1.7383088070399264E+00    4.8705252517492728E+00
H    9.5323756937061059E+00   -1.4354715534708762E+00    4.5827600509646622E+00
H    1.0550459381523495E+01   -2.5844635950313024E+00    4.4029767682044714E+00
O    8.6191953468783371E+00    9.9130939172194843E+00   -3.7439320587144209E+00
H    8.9636781804305201E+00    1.0735913608780859E+01   -3.2969419936754680E+00
H    9.1299983393587887E+00    9.1260590841418772E+00   -3.4352161411553435E+00
O    9.3588083256002221E+00    1.0361570269677271E+01    3.8231405579939430E+00
H    9.3462856383890536E+00    1.0305095165760150E+01    2.7583732922717261E+00
O    3.6397957838727892E+00    1.2795905573363035E+01    1.2278789803853599E+01
H    4.1087066154501191E+00    1.2032426699378362E+01    1.2544996300371720E+01
H    3.4809351390946981E+00    1.3256383979359033E+01    1.3141387591777153E+01
O    1.1493910393411328E+01    1.0115468283788049E+01    9.3281234422530024E-01
H    1.1254416865069135E+01    9.1559672958151399E+00    6.8351700159452977E-01
H    1.0652840499167811E+01    1.0468994042414026E+01    1.3123262475539319E+00
O    3.4456970109223533E+00   -5.6926106398166159E+00    3.4541704701869911E+00
H    4.0517662608023475E+00   -6.3911830770079092E+00    3.7672378105613569E+00
H    2.5645429451660693E+00   -5.8299000131174941E+00    3.8912677093843069E+00
O    2.5700399699496792E+00    1.0863071399917766E+01    5.9617220870423262E+00
H    3.4151933815589599E+00    1.0560666658034043E+01    6.2458518204209090E+00
H    2.1435959651206642E+00    1.1021252175666685E+01    6.8473184425540436E+00
O    6.9670799173695972E+00    2.4344774875642154E+00    1.5722264394983178E+01
H    7.8429130472257800E+00    2.0818950139202417E+00    1.5646214489449184E+01
H    6.9594998814337474E+00    3.4357602207837794E+00    1.5609771443474113E+01
O    1.1286704366627427E+01    1.3851740698634714E+00    3.5146906601673069E+00
H    1.0824908768353326E+01    5.4874787348789611E-01    3.6647385967015182E+00
H    1.1840506548335137E+01    1.4421674650751353E+00    4.3131700423118451E+00
O    8.7270225453767409E+00    1.1783913550939795E+01    1.7484015839212301E+01
H    8.6755236796584274E+00    1.2408806831074005E+01    1.6694213265908910E+01
H    7.7671613192170161E+00    1.1476705471211789E+01    1.7649801668844542E+01
O   -6.1976437915356684E+00    1.0225347191832228E+01    1.0931801881806090E+01
H   -5.9036250117119167E+00    1.0906680844354160E+01    1.0317271798816279E+01
H   -7.1184154615265696E+00    1.0359753850308490E+01    1.1246375727797995E+01
O    2.1441294121909362E+01    4.5215865011263281E+00    8.9117076381897018E+00
H    2.1866313132009623E+01    4.3768111257481381E+00    8.0040320378612577E+00
H    2.1654011229380288E+01    3.6585234756825247E+00    9.4217392537345876E+00
O   -5.3714938897881448E-01    2.7502891495133956E-02    1.0282176340373189E+01
H   -4.9540848821202194E-01    9.7654238772968038E-01    1.0380199881400547E+01
H    1.0720596409237387E-01   -4.0915422752231678E-01    1.0804966971399947E+01
O    8.4729008037374065E+00    9.3809363437247228E-01    6.4795760379959892E+00
H    9.3678367977381605E+00    1.1507714553860600E+00    6.8440735798355039E+00
H    8.3581178628785686E+00    3.7087171993429209E-02    6.7739896978457192E+00
O    1.0512584089269733E+01    8.3928740358307241E+00   -2.0089544449622796E+00
H    1.0233989780040815E+01    7.4016162379786463E+00   -1.8798460399363266E+00
H    1.0001607767121495E+01    8.9029196466510854E+00   -1.3299947502671556E+00
O    1.3773439789645067E+01   -1.1623604288039640E+00    6.2245047905396573E+00
H    1.2910097550673132E+01   -6.4214927791145049E-01    6.3638105376808829E+00
H    1.4205219145977150E+01   -5.2696413696608513E-01    5.6148298840975768E+00
O    1.5538028091781921E+01    1.0251230172756495E+01    6.1378032767159976E+00
H    1.5546598740190456E+01    1.0568266026344256E+01    5.2045522674806843E+00
H    1.5248136022334760E+01    9.3033298044613719E+00    6.2821410536559448E+00
O    1.4246002486553399E+01    1.4595084332914904E+01    9.0773569547369903E-01
H    1.4098678661820870E+01    1.4011834128518501E+01    1.6698354983653390E+00
H    1.5202710792395958E+01    1.4762541433735910E+01    8.8040571126639300E-01
O    3.5082534299783381E+00    8.3198559837436115E+00    8.3757806095162763E+00
H    2.6106420891106237E+00    8.7767739911575475E+00    8.4007657503702724E+00
H    3.2915685684432194E+00    7.5968535746730801E+00    8.9343271883805713E+00
O    5.3271360764266296E-01    9.0410864143870011E+00    8.3168990061833021E+00
H    2.8839026085364416E-01    9.9903668769029483E+00    8.0685055362826272E+00
H   -2.0238253288666125E-01    8.7446940932281532E+00    8.9036940035713315E+00
O    4.3475316622247542E+00    8.4808948427849540E+00   -2.4796118274940082E+00
H    3.7227221137038917E+00    8.5918893313213704E+00   -3.2132737685554109E+00
H    4.8786024606411766E+00    9.2750131883648450E+00   -2.2619949949215150E+00
O   -2.6080414959525805E-01    1.7536933613256483E+01    7.1037658351319468E+00
H   -6.5151103989498971E-01    1.7325455322013028E+01    7.9168282105787506E+00
H   -1.6287225186022738E-01    1.8532112023341192E+01    7.1160054857053270E+00
O    5.9475657617767643E+00    1.4204337309909512E+01    1.2608198032218215E+01
H    6.1796289166601870E+00    1.3512440607718471E+01    1.3300836478880711E+01
H    4.9810023913392598E+00    1.4452861117871455E+01    1.2791263941866450E+01
O    1.6136148697774139E+01    6.0899883959452801E+00    4.7833560772107626E+00
H    1.5745064216927224E+01    6.7964284136401254E+00    4.2745668279756126E+00
H    1.6398828395282571E+01    5.4561318014166549E+00    4.1006844985446165E+00
O    1.5328177626507806E+01    8.1319580544508039E+00    2.7779608811115182E+00
H    1.4421613899347186E+01    8.2668721634796807E+00    3.1705670045803727E+00
H    1.5272202776414762E+01    7.8417683445198749E+00    1.8725359903492864E+00
O    1.4686594166957855E+01    1.1201704550689321E+01    1.9820805584057106E+00
H    1.4461530687477945E+01    1.0456356040064518E+01    1.4429956873528589E+00
H    1.5355148832799891E+01    1.1628912027962572E+01    1.5063720973079042E+00
O    1.3718022277765904E+01    1.0154447614509671E+01    1.6406080392920277E+01
H    1.3049041793209138E+01    1.0551536899605596E+01    1.6971710078835464E+01
H    1.3818367604220594E+01    9.2255664928603132E+00    1.6640953373305724E+01
O    6.7498807922494797E-01    9.2989278187026212E+00    3.9394884286933145E+00
H    1.0461983040688103E+00    9.0633842476385276E+00    4.7648108608066781E+00
H   -1.5102102483491039E-01    8.8370533388951333E+00    3.6817913584949986E+00
O   -1.5771898895422967E+00    9.0854685670580171E+00    1.3261977174901570E+01
H   -1.3867942318288671E+00    8.2441680774048525E+00    1.3710478934364559E+01
H   -2.5247834296541081E+00    9.2213803713866067E+00    1.3457876645821180E+01
O    5.0541925071316198E+00   -1.1444404280440282E-01    1.1959422690025276E+01
H    4.2605073873167338E+00   -6.5097900401632047E-01    1.1699291882053185E+01
H    5.6468787997033276E+00    1.8363917757135532E-03    1.1141222755297886E+01
O    6.0639917105151673E+00   -1.3079965322188409E+00    7.5639979586690265E+00
H    6.1641704121412140E+00   -1.5521109990418549E+00    6.6326246045937367E+00
H    5.5906053003844329E+00   -2.0286094018141152E+00    7.9242513250453976E+00
O    5.4183959610065573E+00    1.1659353145767252E+01   -9.3059642622148875E+00
H    4.8740547614358869E+00    1.1238536703152649E+01   -8.5932935599113218E+00
H    5.4124060725725682E+00    1.2632697206527070E+01   -9.0571458463375851E+00
O    4.9624106985523495E+00    4.4738067067395315E+00    6.1030642588572892E+00
H    5.5605985658316621E+00    4.7908221647180049E+00    5.3883896579129384E+00
H    4.0198882479767279E+00    4.5357346399796086E+00    5.8317547261477589E+00
O    1.7707800947313540E+01    3.3636359853719879E+00    5.4910203203701329E+00
H    1.7497041334515458E+01    4.2021997968926428E+00    5.9405806974787057E+00
H    1.8585676283519916E+01    3.0927406137597147E+00    5.9241022965587149E+00
O    1.9883302677833409E+01    1.4452768589042237E+00    9.9281684940232857E+00
H    1.8968773839180713E+01    1.1023489547869412E+00    1.0019675339053865E+01
H    1.9936044921693309E+01    1.7907737359172764E+00    9.0315992780135623E+00
O    4.4852312113575445E+00    1.8430697223831054E+01    1.4245851430925462E+01
H    5.2970725218365553E+00    1.8903983318502458E+01    1.4478051381111360E+01
H    4.7252857898163079E+00    1.7995400765764824E+01    1.3399044392984230E+01
O    1.9209604680656904E+00    1.3341129549497899E+00    1.2731513271056496E+01
H    1.6920177649914874E+00    1.8291773829344513E+00    1.1951939603687912E+01
H    2.8778262135239130E+00    1.3529164559339353E+00    1.2855851167782308E+01
O    1.8670223390804686E+01    9.3377624032122011E+00   -3.9814311343646125E+00
H    1.8100457686474552E+01    8.9333507340913680E+00   -4.6267859818560719E+00
H    1.9555316692576049E+01    9.3476972561600089E+00   -4.3818395040469067E+00
O    3.0636830005798008E+00   -1.8203894917347723E+00   -3.1482014038607025E+00
H    2.0572771173663984E+00   -1.6169795255878701E+00   -3.0974288603507367E+00
H    3.3921934842540180E+00   -1.1123894727049912E+00   -2.5798001981950245E+00
O   -2.3728558850774393E+00    3.0726605637945013E+00    9.9529715277197628E+00
H   -3.2173369778111893E+00    3.3243488192245820E+00    9.4999410872052490E+00
H   -2.7225943481768744E+00    2.5274096160075472E+00    1.0668289116092684E+01
O    1.3341062383629451E+01    2.7168155876411499E+00    1.8204858921816918E+01
H    1.3135619594658216E+01    2.6906876597564833E+00    1.9180364216652105E+01
H    1.2799936412613462E+01    1.9801901628735872E+00    1.7878627837118710E+01
O    6.5183257916312254E+00    4.8067364346880597E+00    1.2672893144866796E+01
H    5.9493889734370633E+00    4.3440465789725344E+00    1.2017645767571512E+01
H    6.9207609244439876E+00    5.5917454881919992E+00    1.2172139456688772E+01
O    2.0662873752874908E+01    3.8336498673236203E+00    3.4280838249833865E+00
H    2.1146927884597272E+01    4.5712172955239891E+00    3.0095299917721574E+00
H    2.0398283148755027E+01    3.4440468574389018E+00    2.5498810621655217E+00
O    6.8331422866692764E+00    1.1436277030766785E+01    3.7535737932767672E+00
H    6.6952218027596411E+00    1.1460845906556710E+01    4.6821791477138213E+00
H    7.6782015237129828E+00    1.0881802382569207E+01    3.6723830235017045E+00
O    8.0959808953434820E+00    1.8073390156994824E+00    1.2815102825686806E+01
H    8.1188815525243587E+00    8.7998567815415840E-01    1.3139489834866575E+01
H    7.7281823693646201E+00    1.6599454033723351E+00    1.1941910660880797E+01
O   -3.4279093109987975E+00    5.7908852732969445E+00    3.2284801574217403E+00
H   -3.6082761687909226E+00    5.9037030808845454E+00    4.1754805129706929E+00
H   -3.0533600664393301E+00    4.8713088171270620E+00    3.0611264939084397E+00
O    1.8782461018778573E+01    6.7712021829919022E+00    5.2594147555483923E+00
H    1.9084056332255830E+01    5.9737576426014298E+00    5.7657224076402143E+00
H    1.7879122885262074E+01    6.6122953116708523E+00    4.8770624711011612E+00
O    3.6988038626374546E+00    1.7749728235044159E+01    4.5796561300469663E-01
H    3.0379065006394343E+00    1.8304676885069991E+01    8.0668836245118802E-01
H    3.4858671199551008E+00    1.7671871180297728E+01   -4.8801561815572647E-01
O    5.8397384971412984E+00    5.8772102051741255E+00    1.5077236423155776E+01
H    5.8988700739522750E+00    5.7687692027157036E+00    1.4067385834835541E+01
H    5.2191881855961801E+00    6.6554528977833467E+00    1.5256851888621684E+01
O    9.8668915323031481E+00    3.3719637763006269E+00    1.8308062551959331E+01
H    1.0671153582071016E+01    3.5534426712031899E+00    1.7772169697379351E+01
H    9.1711162379852773E+00    3.9648033632547102E+00    1.8130975670893491E+01
O    3.1407631371150493E+00    2.4140494258763336E+00    7.1071087051727728E+00
H    4.0952056006493374E+00    2.3988800895092495E+00    7.0712281639121368E+00
H    2.8664308130790359E+00    1.5247085947129944E+00    6.9255374405489842E+00
O    1.7172336382155617E+01    1.2167072637872549E+01    3.8971957725277782E+00
H    1.7666952139014068E+01    1.2468606304487970E+01    3.1505414700625622E+00
H    1.6573180052748960E+01    1.1468150331233215E+01    3.6782326768390807E+00
O    6.4679287497274531E+00    2.0318455544200029E+00    1.7664679610371519E+00
H    7.2612426415553744E+00    1.4868011347061927E+00    1.5905233155461715E+00
H    6.3180610785727183E+00    2.6381280829543843E+00    1.0337369503448919E+00
O    1.6273339550529826E+01    3.0797532126520628E+00   -4.6561378205022326E+00
H    1.6934730350828847E+01    2.7020281341100212E+00   -5.2266755659330419E+00
H    1.6528608697606014E+01    4.0165457291004918E+00   -4.6305919335264365E+00
O    1.4136528580044974E+01    7.4096392345468320E+00    3.6927549961235356E-01
H    1.3456535282198905E+01    6.9928773373846065E+00    8.9658541288949634E-01
H    1.4537707874846809E+01    6.5836081131947193E+00   -3.8864909801535369E-02
O    5.0328710903524732E+00    7.7380208650382318E+00    1.1786835464971506E+00
H    5.7059104510269254E+00    8.1175602895671162E+00    5.8541212909507778E-01
H    4.2554774556053108E+00    8.3168769939524534E+00    1.2791727029494819E+00
O    1.7678083871943610E+01    1.5641364904148304E+01   -1.9709782725193896E+00
H    1.7126032135951437E+01    1.4882678001906742E+01   -1.6652096495388153E+00
H    1.7021472371209072E+01    1.6118425963243482E+01   -2.4425619797969476E+00
O    1.0843976864703420E+01    8.1712662245570566E-01    8.0589026402467088E+00
H    1.1783207777469789E+01    6.9393463792285126E-01    8.0333949488250127E+00
H    1.0631710904149516E+01    1.0260414603019059E+00    8.9832727407566377E+00
O    3.0558709870325687E+00    1.5897490241481657E+01    6.1234359897767501E+00
H    2.4380261421055636E+00    1.5594641197807276E+01    5.4169932825507932E+00
H    2.8689949808351609E+00    1.5513826728504808E+01    6.9965715706762088E+00
O    1.0473140603180513E+01    1.2777132044905178E+01    3.4957405934026271E+00
H    1.0081895496403396E+01    1.1841201021716447E+01    3.7267270314413303E+00
H    1.1043810811588093E+01    1.2560564560716095E+01    2.7369274417564937E+00
O    1.1208523703662580E+01    1.5525015859448233E+01    2.0061376051658875E+00
H    1.1414821502984953E+01    1.4712098256215629E+01    1.5838174998862249E+00
H    1.1222815199308181E+01    1.5387928905182324E+01    2.9486483000998289E+00
O    1.6537559681154512E+01    9.9923190682098486E+00    1.5899226907641435E+01
H    1.7345542880584802E+01    9.9401578013498426E+00    1.5304926311714491E+01
H    1.6367497062052131E+01    9.0475295162612017E+00    1.5969508548031506E+01
O    7.3435027077120036E+00    1.6566691459333160E+01    1.0566634871852060E+01
H    7.5935160214846755E+00    1.5929304064884635E+01    1.1217996507359478E+01
H    7.3657815675569225E+00    1.6072333845153064E+01    9.7178269472076373E+00
O    6.0256420009135807E+00    2.0063763609788403E+01    1.0723859315727271E+01
H    5.7216897672520757E+00    1.9236585062733052E+01    1.1099629681277985E+01
H    6.8318275327693119E+00    1.9951315238772118E+01    1.0240751383839619E+01
O    5.5582113110238165E+00   -7.7830112366974125E-01    4.6262500845049237E+00
H    5.4700376588049178E+00    1.5046536505852343E-01    4.5257175959840259E+00
H    4.7355949231193302E+00   -1.1491010859939492E+00    4.9798546031100761E+00
O    9.3941796448058312E+00   -1.5795857411395027E+00    7.6587072649278287E+00
H    9.0145707790880980E+00   -2.3310465524343225E+00    8.1276313199501278E+00
H    9.8074356743847879E+00   -1.9908890989245713E+00    6.8341599589571445E+00
O    9.1644203995168318E+00    1.1050767431128252E+01    6.3298961348360985E+00
H    9.1756936226968886E+00    1.0231668547504173E+01    6.8391682442733011E+00
H    9.3026993786954648E+00    1.0821003252517622E+01    5.3631214464788615E+00
O    1.9089038200168311E+01    2.8482338463630024E+00    1.2529349325902879E+00
H    1.9666298732599472E+01    3.3594236450391972E+00    6.5046823821776356E-01
H    1.8194746745229260E+01    2.6483279977406013E+00    9.1025612312204129E-01
O    1.6562977662496575E+01    1.5342139562269596E+01    3.9701653797139214E+00
H    1.6554857969528502E+01    1.4435389823767482E+01    4.3137394617870282E+00
H    1.7297577137722147E+01    1.5901734217187180E+01    4.3242545612003971E+00
O   -3.2371064653839641E+00    1.6961483754029050E+01    1.6445177504519773E+01
H   -2.5210908239916621E+00    1.7603481537377384E+01    1.6693071621325043E+01
H   -3.3415040581920028E+00    1.6342783537540097E+01    1.7147037075345679E+01
O    2.1512549321436851E+00    5.1068855562236735E+00   -2.9676255555905827E-02
H    2.7746078134419601E+00    5.7823996821621710E+00   -1.9268802081272401E-01
H    1.6810435466729070E+00    5.4763530563566780E+00    7.0019381149827664E-01
O    1.2181699684205613E+01    1.3181721564598467E+01   -7.4200132370807992E-01
H    1.3086966379574234E+01    1.3138585027519495E+01   -3.5710079234842818E-01
H    1.1857955943807328E+01    1.4033513366647574E+01   -3.5546901951582138E-01
O    4.0592095735783689E+00    1.0452257387134569E+01    1.0200898023968879E+01
H    4.0158165308233151E+00    9.5819753189525692E+00    9.7611210290177404E+00
H    4.4974115263572481E+00    1.0425154800141188E+01    1.1076431247821475E+01
O    1.7969992708089176E+01    7.5050510570846756E+00   -4.8462005979007550E-01
H    1.8285183240472115E+01    8.1255242453837013E+00    2.2831894516981202E-01
H    1.8030854589297046E+01    8.0407779252945240E+00   -1.2772837131763115E+00
O    1.8863395862358058E+01    6.3777074297691128E+00    2.3523644495622840E+00
H    1.8980601689442540E+01    6.9483200516553154E+00    3.1097171926886888E+00
H    1.8370941485030649E+01    5.5995623605825200E+00    2.7003219566567718E+00
O    1.5095077075876711E+01    1.1924847208881962E+01    1.4642894226818337E+01
H    1.5819880692010955E+01    1.1653222552037198E+01    1.5196254779729186E+01
H    1.4415352209554468E+01    1.1305608038385499E+01    1.5002829602753058E+01
O    6.2648146242879865E-01    3.8118843073186444E+00    9.5653201551981706E+00
H    1.0666228947047662E+00    4.4744502962160873E+00    8.9711502879296390E+00
H   -1.5336533752512707E-01    4.2433243073660858E+00    9.9678277506580137E+00
O    1.2791170954204709E+00    1.3189840655703444E+00    1.5421247039488549E+01
H    2.0592931023618086E+00    1.9396773373281218E+00    1.5576620739677733E+01
H    1.5132150379839870E+00    5.0432275502712065E-01    1.4912694773312953E+01