 # Version information for this restart file 
 # current date 2021-02-25 00:51:19.928
 # current working dir /scratch/usr/hbcmaxdp/polito/amides/2b/EQUILIBRATION_TI/180
 # Program compiled at                              Fri Mar 20 15:50:19 CET 2020
 # Program compiled on                                                   bfn1001
 # Program compiled for                                                    local
 # Source code revision number                                       git:e635599
 &GLOBAL
   PRINT_LEVEL  LOW
   PROJECT_NAME amides
   RUN_TYPE  MD
   WALLTIME 86400
 &END GLOBAL
 &MOTION
   &MD
     ENSEMBLE  NVT
     STEPS  60000
     TIMESTEP     4.9999999999999994E-01
     STEP_START_VAL  37923
     TIME_START_VAL     1.8961499999997715E+04
     ECONS_START_VAL    -6.9248658752056394E+02
     TEMPERATURE     3.3300000000000000E+02
     &THERMOSTAT
       TYPE  CSVR
       REGION  GLOBAL
       &CSVR
         TIMECON     9.9999999999999982E+00
         &THERMOSTAT_ENERGY
               9.9580590669743785E-02
         &END THERMOSTAT_ENERGY
         &RNG_INIT
Wiener process for Thermostat # 1        1 F T F   8.4341280906897809E-01          63283291.0        2015187198.0        3344503364.0         359084567.0        2807829712.0        3230268822.0             12345.0             12345.0             12345.0             12345.0             12345.0             12345.0             12345.0             12345.0             12345.0             12345.0             12345.0             12345.0
         &END RNG_INIT
       &END CSVR
     &END THERMOSTAT
     &AVERAGES  T
       &RESTART_AVERAGES
         ITIMES_START  1
         AVECPU     5.7017508181441090E-01
         AVEHUGONIOT     0.0000000000000000E+00
         AVETEMP_BARO     0.0000000000000000E+00
         AVEPOT    -6.9335734840733892E+02
         AVEKIN     8.0532786522410327E-01
         AVETEMP     3.3307416252465356E+02
         AVEKIN_QM     0.0000000000000000E+00
         AVETEMP_QM     0.0000000000000000E+00
         AVEVOL     3.3154567806721134E+04
         AVECELL_A     3.2125344259055929E+01
         AVECELL_B     3.2125344259055929E+01
         AVECELL_C     3.2125344259055929E+01
         AVEALPHA     9.0000000000000000E+01
         AVEBETA     9.0000000000000000E+01
         AVEGAMMA     9.0000000000000000E+01
         AVE_ECONS     2.7069998700438846E-01
         AVE_PRESS     0.0000000000000000E+00
         AVE_PXX     0.0000000000000000E+00
       &END RESTART_AVERAGES
     &END AVERAGES
   &END MD
   &CONSTRAINT
     CONSTRAINT_INIT  T
     &COLLECTIVE
       COLVAR  1
       INTERMOLECULAR  T
       TARGET     2.8345899999999999E+00
       &RESTRAINT
         K     5.9999999999999998E-01
       &END RESTRAINT
     &END COLLECTIVE
     &COLLECTIVE
       COLVAR  2
       INTERMOLECULAR  T
       TARGET     3.1415899999999999E+00
       &RESTRAINT
         K     5.9999999999999998E-01
       &END RESTRAINT
     &END COLLECTIVE
     &COLLECTIVE
       COLVAR  3
       INTERMOLECULAR  T
       TARGET     1.0000000000000000E+00
       &RESTRAINT
         K     5.9999999999999998E-01
       &END RESTRAINT
     &END COLLECTIVE
     &COLLECTIVE
       COLVAR  4
       INTERMOLECULAR  T
       TARGET     2.6499999999999999E+00
       &RESTRAINT
         K     2.0000000000000001E-01
       &END RESTRAINT
     &END COLLECTIVE
     &COLVAR_RESTART
           2.8345899999999999E+00
           3.1415899999999999E+00
           1.0000000000000000E+00
           2.6499999999999999E+00
     &END COLVAR_RESTART
   &END CONSTRAINT
   &PRINT
     &TRAJECTORY  SILENT
       &EACH
         MD  5
       &END EACH
     &END TRAJECTORY
     &VELOCITIES  SILENT
       &EACH
         MD  5
       &END EACH
     &END VELOCITIES
     &FORCES  SILENT
       &EACH
         MD  5
       &END EACH
     &END FORCES
     &RESTART  SILENT
       &EACH
         MD  1
       &END EACH
     &END RESTART
     &RESTART_HISTORY  SILENT
       &EACH
         MD  500
       &END EACH
     &END RESTART_HISTORY
   &END PRINT
 &END MOTION
 &FORCE_EVAL
   &DFT
     CHARGE  -1
     &SCF
       MAX_SCF  150
       EPS_SCF     9.9999999999999995E-07
       SCF_GUESS  CORE
       &OT  T
         MINIMIZER  DIIS
         N_HISTORY_VEC  7
         PRECONDITIONER  FULL_SINGLE_INVERSE
       &END OT
       &OUTER_SCF  T
         EPS_SCF     9.9999999999999995E-07
         MAX_SCF  150
       &END OUTER_SCF
       &MIXING  T
         METHOD  DIRECT_P_MIXING
         ALPHA     2.0000000000000001E-01
       &END MIXING
     &END SCF
     &QS
       METHOD  DFTB
       &DFTB
         SELF_CONSISTENT  T
         DO_EWALD  T
         DISPERSION  T
         &PARAMETER
           PARAM_FILE_PATH /scratch/usr/hbcmaxdp/polito/amides/2b/INFREQUENT/DFTB/scc/
           PARAM_FILE_NAME scc_parameter
           UFF_FORCE_FIELD uff_table
         &END PARAMETER
       &END DFTB
     &END QS
     &POISSON
       &EWALD
         EWALD_TYPE  SPME
         ALPHA     3.4999999999999998E-01
         GMAX  25
         O_SPLINE  5
       &END EWALD
     &END POISSON
   &END DFT
   &SUBSYS
     &CELL
       A     1.7000000000000000E+01    0.0000000000000000E+00    0.0000000000000000E+00
       B     0.0000000000000000E+00    1.7000000000000000E+01    0.0000000000000000E+00
       C     0.0000000000000000E+00    0.0000000000000000E+00    1.7000000000000000E+01
       MULTIPLE_UNIT_CELL  1 1 1
     &END CELL
     &COORD
S    1.0061619088589033E+00    1.0534872859209743E+01    1.4241585259261516E+01
O    2.2083899741057222E+00    1.1323656969644372E+01    8.4914472717592080E+00
O    4.4483452107276866E+00    1.5550168427421724E+01    7.6468189782984481E+00
O    4.3165462853990890E+00    1.1110381068562212E+01    1.2793388994637942E+01
N    2.7009643276802495E+00    1.1610131267020693E+01    1.1126615561759182E+01
C    3.2736404255679679E+00    1.2542527802474186E+01    1.0294807478942698E+01
C    3.0797902318916841E+00    1.2414436290819211E+01    8.8569912647429678E+00
C    4.0081836946552540E+00    1.3645620535678081E+01    1.0847886749392098E+01
C    3.5526161474800149E+00    1.3415930784021372E+01    8.0143545001358234E+00
C    4.1093994363581317E+00    1.4596957512304263E+01    8.6089638147359704E+00
C    4.4043100085785234E+00    1.4663071788827752E+01    9.9510041247640064E+00
C    2.9262453245147970E+00    1.1373459390279281E+01    1.2520188040122076E+01
C    1.9684518852879185E+00    1.0194736876207148E+01    1.2879717470207124E+01
C    1.5670238822011588E+00    8.9854480504816827E+00    1.2300213342848917E+01
C    4.6016750185465172E-01    8.4044518519030831E+00    1.2972330234824906E+01
C    1.8483058422669698E-02    9.1175559634673498E+00    1.4098211876207154E+01
C    2.1873295019488248E+00    1.0981756788110975E+01    7.0615471192338797E+00
C    4.5172623126449380E+00    1.6898474600717069E+01    8.1525736253975456E+00
H    4.1831173106078943E+00    1.3575572948575797E+01    1.1911002533911107E+01
H    3.2602555225042131E+00    1.3514531838959739E+01    6.9328064313528719E+00
H    2.3848349353650331E+00    1.0752064329071032E+01    1.0643784523072501E+01
H    4.9580525584974531E+00    1.5513633222716667E+01    1.0463243113613247E+01
H    2.0832857895827850E+00    8.5776297600632105E+00    1.1457219984078414E+01
H   -1.0127781189449259E-02    7.4509647137392072E+00    1.2725258783525057E+01
H   -6.9723548507262600E-01    8.8057410930643751E+00    1.4917047075849515E+01
H    1.8422109311799961E+00    1.1771463429710741E+01    6.4616414250885938E+00
H    1.5053778078787123E+00    1.0113265358314974E+01    6.9006799578436713E+00
H    3.1376124032582600E+00    1.0787642601709894E+01    6.6311902918944661E+00
H    4.4313309686642102E+00    1.7627979425992631E+01    7.3452597932936126E+00
H    3.6324427417640477E+00    1.7120588434392918E+01    8.8958479410932387E+00
H    5.4766788298178835E+00    1.7071271729670212E+01    8.7667912827095140E+00
O   -4.7178079570899785E+00   -6.8473572677136989E+00    1.7077971487804420E+00
H   -5.6185346333947708E+00   -6.4855709332626139E+00    2.0539630736877315E+00
H   -4.3068549670675500E+00   -5.9748023612330856E+00    1.4591713828407700E+00
O    5.6547642550642205E+00    3.9829275730322542E+00    1.8808730390412673E+01
H    5.6248654179384170E+00    4.6079249352290841E+00    1.0563091041549877E+00
H    6.5329459918474795E+00    3.5183320025690943E+00    1.8727363276305052E+01
O   -1.1992843984489669E+00    1.2933751467196418E+01    5.1373098493909888E+00
H   -1.4740672544036126E+00    1.2532435965450505E+01    5.9871391958543452E+00
H   -3.7593459597864315E-01    1.3386606273796044E+01    5.3337147561717790E+00
O    1.5943570624628542E+01   -2.6956324288268885E+00   -1.8534935649941907E+01
H    1.6847701688441123E+01   -2.8442331305531119E+00   -1.8654018700802347E+01
H    1.5579591988987469E+01   -3.0508794519687843E+00   -1.9348523808870155E+01
O    9.8953938624906090E+00    1.7614913156657683E+00   -3.1848702940981566E-01
H    9.8190772581630483E+00    1.0197086343433845E+00   -9.7654473968500000E-01
H    1.0761536804635483E+01    2.1730510076400607E+00   -2.9261421230128232E-01
O    1.5441693801248125E+01   -6.0567891086582525E-02   -5.2196293074877262E-02
H    1.5543907627531237E+01   -9.2176609094117035E-01   -5.9886586161341870E-01
H    1.5742755317543534E+01    7.2464716496072845E-01   -5.2829970891335909E-01
O    1.4842443125528996E+01   -6.6395807780660538E+00    3.9263109008815724E+00
H    1.3869898659958123E+01   -6.5906610457554997E+00    3.9786682063706942E+00
H    1.5171093494620074E+01   -5.7109368468626984E+00    4.0497601100927803E+00
O    2.0164989701068241E+00    5.1256206018601889E+00    1.3018644399965130E+01
H    1.2419768172568255E+00    5.5484115329868908E+00    1.3509807674507753E+01
H    2.7308865697987645E+00    5.7677973627953616E+00    1.3102181813461366E+01
O    2.1031922758879462E+00   -7.5937767022252067E-01    9.1290859046884820E-01
H    1.4684256679090919E+00   -1.0954983060890300E+00    1.5299114723304035E+00
H    2.5231760114761794E+00   -4.7465479479418475E-02    1.3887187652702742E+00
O   -2.2523061666765405E+00   -7.1765547114960318E-02    6.9839634111736428E+00
H   -2.8262488897788121E+00   -7.9305457930350776E-01    6.7739123762478286E+00
H   -2.4753597512843348E+00    4.4141412454058830E-02    7.9042149951037750E+00
O    4.4923747451564839E+00    1.2000143321383772E+01    1.7670612988418572E+01
H    5.0814540696222235E+00    1.1228365889317208E+01    1.7722808460729819E+01
H    3.5297604906736848E+00    1.1754864974810685E+01    1.7455754811170191E+01
O    1.0971660093231710E+01   -1.0190866450625666E+00    1.1603850306658796E+01
H    1.0611072573427359E+01   -1.4582368954363573E-01    1.1365831935607664E+01
H    1.1078613107539359E+01   -1.5150887619986495E+00    1.0763274802987674E+01
O   -8.8756099764575225E-01    2.5511778459145296E+00    1.2463505228953519E+01
H   -8.5329847329001351E-01    1.9794525245547714E+00    1.3250711426230326E+01
H   -1.2975184394599530E+00    1.9447251975737883E+00    1.1760576492939414E+01
O    4.5378207094066951E+00    8.8157894658064322E+00    1.1630717559770510E+01
H    4.4991737844002788E+00    9.7667366499426667E+00    1.2009931690816407E+01
H    4.9782502496321417E+00    8.9065641841074008E+00    1.0793638996606777E+01
O    9.6533980776646082E+00    1.0765625651394776E+01    1.9554768685195555E+01
H    9.4600906110519389E+00    1.0058809600342006E+01    2.0216118462428270E+01
H    8.8269534825600893E+00    1.0814986682387097E+01    1.8994656614359339E+01
O    7.6676906100720732E-01    1.6018580716240731E+01    4.2372196743661510E+00
H    2.6202877498311578E-01    1.5912754743039985E+01    5.0633578424006034E+00
H    3.8214582352144366E-01    1.5671743556712542E+01    3.4215455243056438E+00
O    3.3132933762410901E+00    1.6952972896362130E+01    2.2303609661236838E+01
H    3.6486881974253236E+00    1.6105769747370243E+01    2.2620138395582405E+01
H    2.7444902422885344E+00    1.6886665382730300E+01    2.1557222450441500E+01
O    1.6314139209990845E+01    1.1951597062212828E+01    2.7388247944255792E+01
H    1.5350642763244027E+01    1.1765843493435524E+01    1.0424287481121624E+01
H    1.6606415642628296E+01    1.1484746061799317E+01    2.6555695147876822E+01
O   -1.4473707207816107E+00    2.1734786996243198E+01    6.7818590229851257E+00
H    1.4993704336177565E+01    2.2369412578541084E+01    6.2062013829072873E+00
H   -1.3198281355674706E+00    2.0968592946935956E+01    6.1976845730325181E+00
O    1.6730814260948438E+01    1.5109809101925459E+01    1.8772300979196828E+01
H    1.6291108379018780E+01    1.5882782589548313E+01    1.8360078272039530E+01
H    1.6927523021467447E+01    1.4480117315339809E+01    1.8071037344695874E+01
O    3.4304224512255899E+00    8.6528687155544421E+00    4.0382287298942856E+00
H    2.8085741597143192E+00    8.5389924185474300E+00    3.2839731834905588E+00
H    3.7457757222458499E+00    9.5422283114798443E+00    4.0624862274111289E+00
O    9.5549840786221374E+00   -4.2198754575207866E+00   -3.8989299292896862E-01
H    1.0011785648685864E+01   -4.3016254699827607E+00    4.3900247123662123E-01
H    8.9512174191673708E+00   -3.4660158504606859E+00   -3.7313964289728163E-01
O    1.3902208846764958E+01    6.8756338423668018E+00   -9.6556122162718907E+00
H    1.4182020447189158E+01    6.4435961945685021E+00   -8.8269546898582298E+00
H    1.3168473944873856E+01    7.4844154467178496E+00   -9.4157483873192902E+00
O   -2.7410647327375046E+00    5.0021564581428475E+00    9.7461205372226427E+00
H   -1.7922159362464527E+00    5.1859432902638964E+00    9.8302043519140625E+00
H   -2.6564050040534513E+00    4.2119462731132229E+00    9.2053765114811945E+00
O    6.9787378566845293E+00   -2.0213939477245080E+00    1.1769082072931857E+01
H    7.1984986874319761E+00   -2.8852153473336215E+00    1.1429373360608697E+01
H    6.4060840979287033E+00    1.4872333822363535E+01    1.2535708871328923E+01
O    1.4234058913461984E+01    1.1037587280803615E+01    8.1547811314787264E+00
H    1.4697053289192667E+01    1.0998220886761066E+01    7.3121973272640517E+00
H    1.3391571288799362E+01    1.0490922256394963E+01    8.1107777308573166E+00
O    1.8670220619071248E+01    1.4441779105932886E+01    1.5345885506443830E+01
H    1.9197275763665768E+01    1.5187807467437517E+01    1.5541668953373051E+01
H    1.8738137764966066E+01    1.4174882914510105E+01    1.4440589609104727E+01
O    5.6789925786879349E+00    1.8273720885699120E+01    3.7558000804511700E+00
H    5.3708239720934419E+00    1.7330177044113501E+01    3.8402690418962546E+00
H    6.1569285200439587E+00    1.8404079397072003E+01    4.6197581067007478E+00
O    5.6200399514492467E+00    1.0108319272572617E+01    2.6218256530498881E+01
H    2.3143960901219188E+01    1.0965529801057706E+01    2.6165016475149709E+01
H    2.1730401349010489E+01    1.0446623150455007E+01    2.5917199012028536E+01
O    3.1994682186514432E+00    2.4653892652243446E+01    1.5462529307056741E+01
H    3.5619878747932652E+00    2.3802566820874400E+01    1.5267482821643895E+01
H    2.8746785626165794E+00    2.4956587973509233E+01    1.4617724544107505E+01
O    8.7993471432973909E+00    2.0884123455332290E+01    2.0630543656183807E+01
H    9.4479721575481665E+00    2.0344711674317416E+01    2.0150708623624176E+01
H    8.2069980157562661E+00    2.0273742908833174E+01    2.1088743135189375E+01
O    1.9368812840193062E+01    1.9301477326150902E+00   -4.5868969843848220E+00
H    1.9240636486317385E+01    1.0478293036682911E+00   -4.2826602582287707E+00
H    1.8518779657410278E+01    2.3366403160253530E+00   -4.3282336939457950E+00
O    8.0505114133347995E+00   -1.9444306704964580E+00    1.7180202744833590E+01
H    7.9079576556412796E+00   -1.2769703296205308E+00    1.6467951168994468E+01
H    8.1957691670696757E+00   -1.4348069075917060E+00    1.7992407827961774E+01
O    1.6644919680017434E+01    1.6445483854568668E+01    1.0195614889915133E+01
H   -2.9954565599562172E-01    1.6373849123151778E+01    9.2687188745613884E+00
H    1.7584935477883331E+01    1.6416384055620085E+01    1.0472524419251261E+01
O   -4.8555780610346391E+00    3.9458589197462253E+00    4.8681957507244649E+00
H   -5.4292117240535172E+00    3.5496132157187446E+00    4.1469334675928025E+00
H   -4.1523702341793225E+00    4.5213193579501612E+00    4.4355909023002367E+00
O    1.3094454543833404E+01    3.4401043333137369E+00    1.2831617421062337E+01
H    1.3518084280588939E+01    2.9605234362168660E+00    1.2106000339490826E+01
H    1.3287216689447495E+01    4.3929376185342672E+00    1.2765035535395853E+01
O    1.1559579264379352E+01    4.2195656769684078E+00    1.9077991476840861E+01
H    1.0884744349914435E+01    4.4938743804667807E+00    1.8399456538515782E+01
H    1.2431155540116988E+01    4.4982252145713630E+00    1.8772171265908113E+01
O    1.1858563209605572E+01    1.2887460835967845E+01    2.2105147591463197E+01
H    1.2744306715997444E+01    1.3250884046653502E+01    2.2114731707653444E+01
H    1.1509247528801014E+01    1.2821726934435874E+01    2.3031178762864386E+01
O    4.7227493085702941E+00    7.7980474470106498E-01    1.1547236984383316E+01
H   -1.3125238783165646E+01    9.1868924984547151E-01    1.1081065171263857E+01
H    4.6185308379147552E+00   -1.1707181160548587E-01    1.1902318387552501E+01
O    1.3502125511800202E+01    1.3189338938253572E+01    1.6487851335409228E+01
H    1.4182843967761443E+01    1.3749761058239821E+01    1.6033505001930383E+01
H    1.2653711616756027E+01    1.3456483114857679E+01    1.6115182416523865E+01
O    1.0442730502561876E+01    6.5141409835928936E+00    3.9285150500546790E+00
H    1.0135732908672823E+01    5.6240152334990166E+00    3.6333678455634151E+00
H    1.1381848289668671E+01    6.5411935776716508E+00    3.7542420366185203E+00
O    1.2376804933891188E+01    9.8135149588856567E+00    4.7608652875857489E+00
H    1.1835235959213959E+01    9.6541264470918868E+00    5.5556673596703980E+00
H    1.2274218906955515E+01    9.0391762180977349E+00    4.1650952825618264E+00
O    2.3090445722343620E+01    1.1480470494960880E+01    6.3323319809814747E+00
H    2.3057677807391517E+01    1.0634858211484067E+01    6.8165156282569965E+00
H    2.3750289881932950E+01    1.1429733437944016E+01    2.2631496631352267E+01
O   -6.0072444233343889E+00    2.3101566869554034E+01    6.7087815119454346E+00
H   -6.6641017481975835E+00    2.2459200129171780E+01    6.2172792447813068E+00
H   -5.4202979426216631E+00    2.3415825077702863E+01    5.9826961122160034E+00
O    2.7062098291946466E+00    4.8797674707603305E+00    9.7001874277198379E+00
H    2.8993941804034300E+00    5.4228111938922279E+00    8.9153792698762988E+00
H    3.4783735214258646E+00    4.2728881407854011E+00    9.6928989892493007E+00
O    1.1240690104556021E+01   -1.7517965394126747E+00    1.8974685721678799E+01
H    1.2211814593188125E+01   -1.6651773883482561E+00    1.8940700737248477E+00
H    1.0852340960572556E+01   -1.7847304780793756E+00    1.0884753745648186E+00
O    7.8881969886788941E+00   -5.1748762969665563E-01    1.9557378202426726E+01
H    8.0152655005652385E+00   -1.3989702194944342E+00    1.9907311836737094E+01
H    7.0144330499992895E+00   -1.2243175594781550E-01    1.9719398866998624E+01
O    1.8409655309258689E+01    9.1060380695645780E+00    1.8816518058409823E+01
H    1.8009456473268735E+01    9.9416026492883560E+00    1.8960893048796322E+01
H    1.8839922934993652E+01    9.0713209010698446E+00    1.7972776397321393E+01
O    8.6516013156966345E+00    5.8542644115422986E+00    1.3304730430664076E+00
H    8.6663584918167658E+00    5.2599825303393102E+00    2.0624569576433758E+00
H    8.2762015419746504E+00    5.3600504266092512E+00    5.9388130877050871E-01
O    1.4118745844128354E+01    5.3052970178269696E+00    1.1000968505075308E+00
H    1.3759048997615302E+01    6.2430413964478948E+00    1.2038012943540115E+00
H    1.4680874430683172E+01    4.9522382859927809E+00    1.7852941200735828E+00
O    1.2259147014826034E+01    6.2711693757616782E-01    2.1507654932914743E+01
H    1.2238370183145747E+01    9.1499919915907557E-01    2.0570532122562323E+01
H    1.1749718365261375E+01   -2.0415771827517337E-01    2.1590816728482096E+01
O    1.0617993687565157E+01    2.1820803438052025E+00   -3.7433026559515117E+00
H    1.1026330022424210E+01    1.3119274272980590E+00   -3.6659546393711593E+00
H    1.1233093420273903E+01    2.6976927317056671E+00   -4.2988626551513613E+00
O    2.2045650204076285E+01    1.5300549051360191E+00    8.0600003474926629E-01
H    2.2591463190728355E+01    9.2475308325354633E-01    1.3527023756231211E+00
H    2.1939059064793859E+01    2.4137100219036558E+00    1.2679278857756828E+00
O    5.0192014531324114E+00    2.2519415631581477E+01    7.8625550310421959E+00
H    4.4386916565574754E+00    2.2514477574937768E+01    7.0541932549715805E+00
H    5.4870758308087071E+00    2.3393401670649240E+01    7.7790416966983091E+00
O    1.0943303227205371E+01   -5.0212691559844176E+00   -3.5793970797923564E+00
H    1.1019528501941588E+01   -5.8603762147835772E+00   -3.0574265161031482E+00
H    1.0259092663594881E+01   -4.4814860215247529E+00   -3.1873871007710943E+00
O    1.3184266585565322E+01   -9.9798850735235227E+00    4.4635985815864752E+00
H    1.3428064645923858E+01   -9.7710905920453914E+00    5.3703688518691566E+00
H    1.3805898946916427E+01   -1.0623859321614361E+01    4.0722321334245910E+00
O    4.1293644291521305E+00    3.0462886710809380E+00    2.3272814587468542E+01
H    3.4002289683299338E+00    3.3077872175388521E+00    2.3913012894525110E+01
H    3.7181839112973698E+00    2.5310086802297924E+00    2.2554560870252075E+01
O    9.2306229221065568E+00    7.3062972282089609E+00   -1.3306173474301095E+00
H    9.2350000659559139E+00   -9.7828427711166945E+00   -3.5653678516252957E-01
H    9.5146004154120831E+00    6.4407212161990453E+00   -1.7480613400818006E+00
O    2.6500899603548174E+00    7.8826233315626304E+00    7.9986583298581673E+00
H    3.5435857503803287E+00    8.1882527257683169E+00    7.8353511301898733E+00
H    2.7538496306059481E+00    7.1336923494522591E+00    8.5830258638503203E+00
O    1.2401480355141572E+01    6.5686033864843258E+00    1.0972475913749467E+01
H    1.2167108214018354E+01    6.0469967641316122E+00    1.0176748624408264E+01
H    1.3016525569808934E+01    7.2202655841860803E+00    1.0649417525974203E+01
O    1.4859868445596465E+01    4.3049136288042593E+00    3.8859000030210664E+00
H    1.5725774806345939E+01    4.5915774439090047E+00    3.5780829131955221E+00
H    1.5082521006206795E+01    3.4938880681489315E+00    4.3641805715712625E+00
O    1.6197073058016208E+01    2.9742311544822755E+00    1.6284224327591659E+01
H    1.6277977627265336E+01    3.6276615619018089E+00    1.5578615961258865E+01
H    1.5858160322921728E+01    3.4088151262325739E+00    1.7015786503259015E+01
O   -1.0157529224317983E+00    2.5670531410304300E+00   -8.1431286391239510E+00
H   -1.7094823624738471E+00    2.4552125539817280E+00   -7.4266093964785851E+00
H   -1.2231671195676987E+00    3.1272170577038132E+00   -8.8666264638197774E+00
O    8.4818606327749695E+00    1.5929988194378623E+01   -7.6086679540990305E+00
H    8.1174782674258523E+00    1.5014779250881780E+01   -7.7638199291215253E+00
H    7.8858658442977916E+00    1.6307526413689271E+01   -6.9445646286588323E+00
O    1.7628299638602949E+00    4.3044545311190365E+00    7.1778184812768311E+00
H    1.6816950270316202E+00    4.8432684145463405E+00    6.3515651140683165E+00
H    9.5689057842825764E-01    4.5403168103142439E+00    7.7130264401391688E+00
O    8.2730301433709492E+00    1.3380685388565045E+01    1.3970958977992876E+01
H    8.0331982356335647E+00    1.3009005913992674E+01    1.3137514606415333E+01
H    7.5787781158974195E+00    1.3116121813386586E+01    1.4591659793037399E+01
O    4.8210822390453298E+00    1.5320010302929159E+01    1.6049146688398551E+01
H    5.6626930846013606E+00    1.5717830214319273E+01    1.6250910027051880E+01
H    4.8579798894383552E+00    1.4478853541770425E+01    1.6537021177409461E+01
O    7.1412053789608336E+00   -3.2377559209654576E+00    8.2080404732170749E+00
H    6.4353552439376571E+00    1.4217291345161792E+01    7.7896610689000152E+00
H    6.7009708059543760E+00   -4.0830617998381955E+00    8.3487207677197297E+00
O    1.8572536197874484E+01    1.2235542206757584E+01    1.6907015900370901E+01
H    1.8916788566557265E+01    1.3066283023346317E+01    1.6611716314596091E+01
H    1.7693259648110541E+01    1.2217314956947204E+01    1.6595093274239279E+01
O    1.7157220918289976E+01    1.4807898215898334E+01    6.9124706389681503E+00
H    1.6503482116178109E+01    1.4613947173248864E+01    7.5594493623056440E+00
H    1.7991560330690014E+01    1.4613850789240740E+01    7.3393151526401361E+00
O    4.7371287930057822E+00    2.2414893230747488E+01   -1.5533266157469712E+00
H    5.4143000710953020E+00    2.3101844670521256E+01   -1.3066472294640394E+00
H    4.7602172238498364E+00    2.1842794843612364E+01   -7.8571185616507466E-01
O    9.7041286095643442E-01    1.3447826127360978E+00    6.7177836517973795E+00
H    1.9132831488351225E+00    1.1523630780054199E+00    6.6395334900321039E+00
H    9.4105515243592985E-01    2.2072997446508187E+00    7.1355797989116629E+00
O    1.4231308806586069E+01    8.7784870214978561E+00    1.1362029911199420E+01
H    1.5162430646580995E+01    8.6185157320155437E+00    1.1121806682435595E+01
H    1.4108226822978510E+01    9.0018284001843725E+00    1.2286115186312667E+01
O   -8.5266984311121181E+00    1.1278010286171229E+01    8.7056576384041122E+00
H   -8.3771414592820612E+00    1.0354452448111852E+01    9.0063497580274383E+00
H   -8.2050597650279808E+00    1.1277738920065575E+01    7.7541800616415051E+00
O    1.5124059094541513E+00    3.8238781034304061E+00    2.1153893651939150E+01
H    1.4306419300303603E+00    4.6282246137423506E+00    2.0683498670958389E+01
H    2.4571437172694597E+00    3.8543762605835683E+00    2.1298133358804929E+01
O    2.3439521631975597E+00    1.7434176997246056E+00    2.3041215006195421E+00
H    1.5322379277385085E+00    2.2345246594906292E+00    2.3540148345468110E+00
H    2.7571005521847898E+00    1.9291011968308489E+00    1.3989814926785937E+00
O    1.0095386768465758E+01    1.6214876426202910E+01    5.9882072837569753E+00
H    1.0708833112644610E+01    1.5661435302982891E+01    6.4673686410495437E+00
H    9.2128585251100858E+00    1.5865506054844955E+01    2.3104541856603692E+01
O    6.6901266027010049E+00    3.1886038685197624E+00    5.7658715906666016E+00
H    2.3990234753299113E+01    2.5739739599901355E+00    6.4368482062016197E+00
H    5.7242025350461940E+00    3.4253459995838127E+00    5.9899760378950884E+00
O    1.3530864137489363E+01    1.2327539979797747E-01   -2.9115283446151934E+00
H    1.4323500633510157E+01   -4.2682424623207987E-01   -2.9942804026827310E+00
H    1.3425367555895473E+01    4.2102220339496071E-01   -1.9882089208152387E+00
O    6.9718791149265569E-01    6.6083563329009589E+00   -5.1685414960966447E-01
H    1.6854135545440680E+01    6.1965218666994382E+00   -3.2049331935046171E-01
H    7.7888052546479147E-01    6.6933131738847607E+00   -1.4525951056673714E+00
O    7.5646381206518756E+00    1.3206462276098379E+00    1.3115154695002971E+01
H    8.3534671219423355E+00    1.7380702767075622E+00    1.2872754840717446E+01
H    6.9123045362887625E+00    1.4333872177732547E+00    1.2384751791079321E+01
O   -6.6950776431888963E+00    4.8899712373381465E+00    9.2906321028561667E+00
H    1.0887216574758401E+01    5.2795361258802069E+00    8.6250715205745507E+00
H   -7.5556775864445669E+00    4.9392746415379811E+00    8.8859474575556607E+00
O    6.4355831937553072E+00    1.2344899306701977E+01    1.1711648341007436E+01
H    6.5843085909009540E+00    1.1520036773946353E+01    1.1181266617044370E+01
H    5.6009210123431208E+00    1.2070369719749433E+01    1.2244969590269450E+01
O    1.9806470116891809E+01    2.2564379636764976E+01    1.8145901607577837E+01
H    2.7309986643457584E+00    2.3017583107949608E+01    1.7222825080133976E+01
H    1.9975267367205685E+01    2.3360179685378867E+01    1.6995848811906182E+00
O    1.4186200094528800E+01   -3.3656654380735520E+00    7.5795717408105769E+00
H    1.3784717268234068E+01   -2.8825574868407702E+00    8.3051900539148509E+00
H    1.3735310975564243E+01   -4.2314159672568907E+00    7.6668257844212793E+00
O    7.3110561302806172E+00    1.4447297730283484E+01    2.2181682917122863E+01
H    6.8628894695015061E+00    1.5126989975469565E+01    2.2673024842969863E+01
H    6.6581239678794493E+00    1.3689799604298429E+01    2.2089260086045137E+01
O    1.9509319688855069E+01    1.8764880274962248E+01   -7.2408409877616018E+00
H    1.8790759820455143E+01    1.8844525546765961E+01   -7.9137933674285765E+00
H    1.9143497531405693E+01    1.9375394099271304E+01    1.0505493316669691E+01
O    7.0354756726090972E+00   -4.1703448319411098E+00    1.8366983336915137E+01
H    7.7437240277944408E+00   -4.0107209505247994E+00    1.9014016818910207E+01
H    6.6381319536400003E+00   -3.3358266863202855E+00    1.8028784795095337E+01
O    6.9294909025444111E+00    1.7418844211838977E+01    1.5996089666078916E+01
H    6.9868412597878509E+00    1.7897993043679723E+01    1.5159015059547519E+01
H    6.1761433050422072E+00    1.7797031317760720E+01    1.6530117842544474E+01
O    1.2677446656445394E+01    1.9905703878846747E+01    7.4463465575517507E+00
H    1.1888752242014853E+01    2.0462814368565876E+01    7.2515880924629075E+00
H    1.2866046543537919E+01    1.9632783612664138E+01    6.5231348210772930E+00
O    4.0162140353205311E+00    2.2379017886078838E+01    4.3650249718353349E+00
H    4.4123082393496382E+00    2.1842824451453225E+01    3.6749009116874483E+00
H    4.7359158822729501E+00    5.9802519879243556E+00    4.6051203648182142E+00
O    8.3476317601609242E+00    5.4427184808017968E+00    7.4438524762390772E+00
H    7.7999313113154374E+00    5.7814542098737123E+00    8.1288048070587440E+00
H    7.8302815736462517E+00    4.6808674316882461E+00    7.1551553919345050E+00