%chk=3.chk
%nprocshared=8
%mem=16GB
# B3lyp/6-31G* scf=(tight,XQC) opt
integral=(grid=ultrafine) pop=(MK,readradii) IOp(6/33=2,6/41=10,6/42=17) geom=connectivity 

NONE   2

0 1
 C                     -0.72000000   -0.39300000   -0.00100000
 C                      0.72000000   -0.39300000    0.00000000
 C                     -1.41200000    0.84600000    0.00000000
 C                      1.41200000    0.84600000    0.00000000
 C                     -0.69600000    2.04500000    0.00000000
 C                      0.69500000    2.04500000    0.00000000
 C                     -1.51500000   -1.56600000    0.00000000
 C                      1.51500000   -1.56600000    0.00000000
 C                     -2.81700000    0.88000000    0.00000000
 C                      2.81700000    0.88000000    0.00000000
 C                     -2.91200000   -1.51800000    0.00000000
 C                      2.91200000   -1.51800000    0.00000000
 C                     -3.56300000   -0.29400000    0.00100000
 C                      3.56300000   -0.29400000    0.00100000
 H                     -1.21400000    3.00200000    0.00000000
 H                      1.21400000    3.00300000    0.00000000
 H                     -1.06000000   -2.55300000    0.00000000
 H                      1.06100000   -2.55300000    0.00000000
 H                     -3.34800000    1.83100000    0.00100000
 H                      3.34700000    1.83100000    0.00100000
 H                     -3.48600000   -2.44100000    0.00000000
 H                      3.48600000   -2.44000000    0.00100000
 H                     -4.64800000   -0.25200000    0.00100000
 H                      4.64800000   -0.25200000    0.00100000

 1 2 1.5 7 1.5 3 1.5
 2 8 1.5 4 1.5
 3 9 1.5 5 1.5
 4 6 1.5 10 1.5
 5 6 1.5 15 1.0
 6 16 1.0
 7 11 1.5 17 1.0
 8 12 1.5 18 1.0
 9 13 1.5 19 1.0
 10 14 1.5 20 1.0
 11 13 1.5 21 1.0
 12 14 1.5 22 1.0
 13 23 1.0
 14 24 1.0
 15
 16
 17
 18
 19
 20
 21
 22
 23
 24


