 # Version information for this restart file 
 # current date 2021-02-25 00:50:50.752
 # current working dir /scratch/usr/hbcmaxdp/polito/amides/2b/EQUILIBRATION_TI/45
 # Program compiled at                              Fri Mar 20 15:50:19 CET 2020
 # Program compiled on                                                   bfn1001
 # Program compiled for                                                    local
 # Source code revision number                                       git:e635599
 &GLOBAL
   PRINT_LEVEL  LOW
   PROJECT_NAME amides
   RUN_TYPE  MD
   WALLTIME 86400
 &END GLOBAL
 &MOTION
   &MD
     ENSEMBLE  NVT
     STEPS  60000
     TIMESTEP     4.9999999999999994E-01
     STEP_START_VAL  38381
     TIME_START_VAL     1.9190499999997362E+04
     ECONS_START_VAL    -6.9250194712843586E+02
     TEMPERATURE     3.3300000000000000E+02
     &THERMOSTAT
       TYPE  CSVR
       REGION  GLOBAL
       &CSVR
         TIMECON     9.9999999999999982E+00
         &THERMOSTAT_ENERGY
               1.3265853213898304E-01
         &END THERMOSTAT_ENERGY
         &RNG_INIT
Wiener process for Thermostat # 1        1 F T F   8.7956838580925101E-01        3742110497.0        1896874849.0        2633740985.0        2165278447.0        2750977690.0         684358093.0             12345.0             12345.0             12345.0             12345.0             12345.0             12345.0             12345.0             12345.0             12345.0             12345.0             12345.0             12345.0
         &END RNG_INIT
       &END CSVR
     &END THERMOSTAT
     &AVERAGES  T
       &RESTART_AVERAGES
         ITIMES_START  1
         AVECPU     5.6335855206078833E-01
         AVEHUGONIOT     0.0000000000000000E+00
         AVETEMP_BARO     0.0000000000000000E+00
         AVEPOT    -6.9335880972007249E+02
         AVEKIN     8.0539726408781820E-01
         AVETEMP     3.3310286508097215E+02
         AVEKIN_QM     0.0000000000000000E+00
         AVETEMP_QM     0.0000000000000000E+00
         AVEVOL     3.3154567806721134E+04
         AVECELL_A     3.2125344259055929E+01
         AVECELL_B     3.2125344259055929E+01
         AVECELL_C     3.2125344259055929E+01
         AVEALPHA     9.0000000000000000E+01
         AVEBETA     9.0000000000000000E+01
         AVEGAMMA     9.0000000000000000E+01
         AVE_ECONS     6.9622394351726916E-02
         AVE_PRESS     0.0000000000000000E+00
         AVE_PXX     0.0000000000000000E+00
       &END RESTART_AVERAGES
     &END AVERAGES
   &END MD
   &CONSTRAINT
     CONSTRAINT_INIT  T
     &COLLECTIVE
       COLVAR  1
       INTERMOLECULAR  T
       TARGET     2.8345899999999999E+00
       &RESTRAINT
         K     5.9999999999999998E-01
       &END RESTRAINT
     &END COLLECTIVE
     &COLLECTIVE
       COLVAR  2
       INTERMOLECULAR  T
       TARGET     7.8539800000000004E-01
       &RESTRAINT
         K     5.9999999999999998E-01
       &END RESTRAINT
     &END COLLECTIVE
     &COLLECTIVE
       COLVAR  3
       INTERMOLECULAR  T
       TARGET     1.0000000000000000E+00
       &RESTRAINT
         K     5.9999999999999998E-01
       &END RESTRAINT
     &END COLLECTIVE
     &COLLECTIVE
       COLVAR  4
       INTERMOLECULAR  T
       TARGET     2.6499999999999999E+00
       &RESTRAINT
         K     2.0000000000000001E-01
       &END RESTRAINT
     &END COLLECTIVE
     &COLVAR_RESTART
           2.8345899999999999E+00
           7.8539800000000004E-01
           1.0000000000000000E+00
           2.6499999999999999E+00
     &END COLVAR_RESTART
   &END CONSTRAINT
   &PRINT
     &TRAJECTORY  SILENT
       &EACH
         MD  5
       &END EACH
     &END TRAJECTORY
     &VELOCITIES  SILENT
       &EACH
         MD  5
       &END EACH
     &END VELOCITIES
     &FORCES  SILENT
       &EACH
         MD  5
       &END EACH
     &END FORCES
     &RESTART  SILENT
       &EACH
         MD  1
       &END EACH
     &END RESTART
     &RESTART_HISTORY  SILENT
       &EACH
         MD  500
       &END EACH
     &END RESTART_HISTORY
   &END PRINT
 &END MOTION
 &FORCE_EVAL
   &DFT
     CHARGE  -1
     &SCF
       MAX_SCF  150
       EPS_SCF     9.9999999999999995E-07
       SCF_GUESS  CORE
       &OT  T
         MINIMIZER  DIIS
         N_HISTORY_VEC  7
         PRECONDITIONER  FULL_SINGLE_INVERSE
       &END OT
       &OUTER_SCF  T
         EPS_SCF     9.9999999999999995E-07
         MAX_SCF  150
       &END OUTER_SCF
       &MIXING  T
         METHOD  DIRECT_P_MIXING
         ALPHA     2.0000000000000001E-01
       &END MIXING
     &END SCF
     &QS
       METHOD  DFTB
       &DFTB
         SELF_CONSISTENT  T
         DO_EWALD  T
         DISPERSION  T
         &PARAMETER
           PARAM_FILE_PATH /scratch/usr/hbcmaxdp/polito/amides/2b/INFREQUENT/DFTB/scc/
           PARAM_FILE_NAME scc_parameter
           UFF_FORCE_FIELD uff_table
         &END PARAMETER
       &END DFTB
     &END QS
     &POISSON
       &EWALD
         EWALD_TYPE  SPME
         ALPHA     3.4999999999999998E-01
         GMAX  25
         O_SPLINE  5
       &END EWALD
     &END POISSON
   &END DFT
   &SUBSYS
     &CELL
       A     1.7000000000000000E+01    0.0000000000000000E+00    0.0000000000000000E+00
       B     0.0000000000000000E+00    1.7000000000000000E+01    0.0000000000000000E+00
       C     0.0000000000000000E+00    0.0000000000000000E+00    1.7000000000000000E+01
       MULTIPLE_UNIT_CELL  1 1 1
     &END CELL
     &COORD
S    5.1301541819547252E+00    7.3274218628150347E+00    1.6648119871556126E+00
O    9.5114793379144587E+00    6.6083870358106180E+00    6.2255377721454321E+00
O    5.6664564213364912E+00    4.3392693770991579E+00    8.2399070005847914E+00
O    7.2590053404693480E+00    5.9669107328007458E+00    1.9013993021180233E+00
N    8.1961617729254641E+00    6.7430086002210254E+00    3.8890800475494389E+00
C    7.4444872068855927E+00    6.3073535281261304E+00    5.0134772367494476E+00
C    8.1611129356312802E+00    6.0728469766252937E+00    6.2283807324769782E+00
C    6.1326629670977937E+00    5.8243892954637273E+00    4.8956629536770793E+00
C    7.5180707795113646E+00    5.5621302063618332E+00    7.3428267416400113E+00
C    6.2107607752708676E+00    5.0493043258031047E+00    7.1307419177071889E+00
C    5.4836628539100953E+00    5.1868930484301972E+00    5.9395957617770536E+00
C    7.6373468717145450E+00    7.1649704291785072E+00    2.6139247350918238E+00
C    6.4003789645805282E+00    8.1198259647873545E+00    2.5559788379870882E+00
C    5.9058553404100795E+00    9.2203006488921666E+00    3.1846727138860511E+00
C    4.5966263391766118E+00    9.5331144264076979E+00    2.8045432512116455E+00
C    3.9709893755150074E+00    8.5214952148077323E+00    2.1494621847943240E+00
C    1.0416690710423410E+01    5.9168587947279292E+00    7.1786806950210416E+00
C    4.7967423088418908E+00    3.2545471277848659E+00    7.8734904562494687E+00
H    5.5943435175488361E+00    5.8357029850228583E+00    3.9205241108325382E+00
H    7.9380390914970471E+00    5.3705844445709081E+00    8.3398382729619893E+00
H    9.0700511767431298E+00    7.2095848825045916E+00    4.1560485644784171E+00
H    4.4283025308159001E+00    4.8615131129413651E+00    5.9364990341827184E+00
H    6.5071764859510761E+00    9.8672504027192769E+00    3.8338926953740367E+00
H    4.0552047706876841E+00    1.0369507772595826E+01    3.3242559052049465E+00
H    2.9619967070828328E+00    8.7847600052886197E+00    1.8417838860298630E+00
H    1.1432026366608417E+01    5.7942676107536260E+00    6.6725139527962973E+00
H    9.9961772747898348E+00    4.9325947877553356E+00    7.4325549002155205E+00
H    1.0599131581092234E+01    6.4075018332619145E+00    8.1542628370909203E+00
H    5.3091810844306071E+00    2.6100473970700571E+00    7.0795665911291561E+00
H    4.6290963677066550E+00    2.5426253168020532E+00    8.7392094691650168E+00
H    3.8247903991904737E+00    3.5874014487899846E+00    7.5344927796035224E+00
O    1.0441706460488332E+01   -5.0630151836364652E+00    1.3642841298926115E+01
H    1.0777577466643198E+01   -5.5901576320036561E+00    1.2900335164856214E+01
H    1.1192880723231223E+01   -4.9669463759847581E+00    1.4276621440790002E+01
O    1.9219593115674186E+01    1.9109393094634456E+01    9.0274964683130783E+00
H    1.9579099497736195E+01    1.9007265669421606E+01    9.8729892292764490E+00
H    1.8987100336552320E+01    2.0009126107846395E+01    8.9904382314627647E+00
O   -2.9748647780943003E+00    1.6192629633627025E+01    5.4325440776507019E+00
H   -2.8655377625760998E+00    1.6685046537119902E+01    6.2860094842020580E+00
H   -2.8086357757566986E+00    1.5243401399308983E+01    5.5757299980632240E+00
O    2.0015419960834674E+01    6.3724142687821654E+00   -3.2883912735314669E-01
H    2.0114315432794058E+01    5.5553746995905433E+00   -8.1838204763433497E-01
H    1.9121550249972174E+01    6.6062922164309210E+00   -2.0944950141392307E-01
O    2.0302760550636396E+01    9.3614168833836364E-01   -3.4204217503280590E+00
H    2.0815096011580966E+01    3.3129995866160378E-01   -2.9287737676494343E+00
H    2.0636742722403543E+01    1.7797407190556749E+00   -3.1613851543140368E+00
O   -3.1144538792005587E+00    6.1521582670871062E+00    8.9111160515394694E+00
H   -2.5808494447450219E+00    6.9056925514902874E+00    9.1033732954015498E+00
H   -3.6087076624243353E+00    6.4618103740909953E+00    8.1364164576099149E+00
O    1.4867264637919684E+01   -9.5866436230299037E+00    1.9773747920250976E+01
H    1.5805744489705676E+01   -9.3966627448144102E+00    1.9505131646224843E+01
H    1.4380170823834090E+01   -8.7541544151816471E+00    1.9749472223252329E+01
O    2.8938870976977333E+00    9.8880962594606512E+00    8.7286995943507186E+00
H    3.5552248235003776E+00    9.2451825873388369E+00    8.9901377792410528E+00
H    2.2629229016091896E+00    9.3934409937052354E+00    8.1775778149145708E+00
O    7.4955696543807662E+00    4.1674997942481333E+00   -2.8038214811128488E+00
H    8.2592084482420329E+00    3.6603787131027343E+00   -3.1649603959118857E+00
H    7.4168230908490189E+00    3.9701007293803396E+00   -1.8548043529632843E+00
O    8.4919807740487556E+00    2.7603296147593896E+00   -7.1620280567250454E+00
H    8.6815026090054808E+00    1.9806188234028237E+00   -7.6726315035171382E+00
H    7.5099479433077763E+00    2.8237856711068008E+00   -7.0620258072591451E+00
O    1.4447805110701906E+00    4.7598329696821322E+00    9.1200909533279066E+00
H    8.7881328687389848E-01    5.0705325126875014E+00    8.4193207927146840E+00
H    1.1633515244367731E+00    5.3304190956676498E+00    9.8548583641478267E+00
O    1.2992237750714684E+01    7.7518392697167171E-01   -1.9734620459777625E+00
H    1.3776154554784046E+01    7.0701746860922920E-01   -1.4384496075232955E+00
H    1.3250603489652766E+01    7.2106389191099429E-01   -2.9060631677040454E+00
O   -1.1888367734631931E+00    4.2535213811484560E+00    7.8520266272429549E+00
H   -1.2385774186904939E+00    3.7772547833393642E+00    6.9767137212267141E+00
H   -2.0350308496859260E+00    4.7196971433605670E+00    7.9513594980754405E+00
O    9.1621950194341562E+00    2.4040470665017386E+00    5.9353600128732777E+00
H    9.4658488079483885E+00    3.2510817843893287E+00    6.2539989318236708E+00
H    9.8664222199179612E+00    2.1057673823300851E+00    5.3424261380256564E+00
O    1.4373153139853708E+01    6.8899329279133044E+00    1.3822254567967891E+01
H    1.4139723928201541E+01    7.7793777852023336E+00    1.4136179455989859E+01
H    1.3549163970280359E+01    6.4014361571655600E+00    1.3516824317967387E+01
O    5.0745510417996602E+00   -7.3318011896722879E-02    9.3888063314117005E+00
H    4.7590233952671381E+00    5.5637556093391183E-01    1.0080943555026584E+01
H    4.5898313740689369E+00    1.2373042309965124E-01    8.5430089770927911E+00
O    4.1471376030558300E+00    1.8809153201764595E+01   -5.9601828474142451E+00
H    4.7319858090905882E+00    1.9532955726780123E+01   -5.8128398582909480E+00
H    4.0164274877053714E+00    1.8292785301273014E+01   -5.1360486085539598E+00
O    8.8868303710387888E+00    7.7607323244120918E+00    1.9971902706431264E+00
H    8.8645007723238400E+00    7.6518107250041147E+00    9.5782737398947138E-01
O   -9.0990539108133395E-01    1.1164275375923088E+01    4.8458096829320194E+00
H   -9.5371989819565484E-01    1.2093489058418800E+01    5.2646720082304306E+00
H   -1.6062381692511103E+00    1.1249200192058774E+01    4.1387335408012698E+00
O    1.0496835424971268E+01    1.9575379207377932E+01    1.8834908738479474E+00
H    1.1021509920016204E+01    1.8964545490621862E+01    2.4410264214859581E+00
H    9.8044370806525194E+00    1.9770690649127854E+01    2.5056360068977530E+00
O    1.0879105452871705E+01   -1.2819708106278274E+01   -3.0502283258058371E+00
H    1.0482270002758771E+01   -1.2629543329199992E+01   -2.1720702828998077E+00
H    1.1429025003945984E+01   -1.2042380552984371E+01   -3.2513583106069905E+00
O   -1.9119425603242566E+00    1.8684053902797110E+01    9.9400572392479880E-01
H   -1.5633024199948544E+00    1.7858364266361367E+01    1.4074881741314222E+00
H   -1.4369317498584351E+00    1.9492554361853777E+01    1.3182182525410007E+00
O    1.8002157194893570E+01   -1.5543479696768474E+00    1.6988362641728109E+01
H    1.7325640058909162E+01   -1.5389977583915433E+00    1.7694888465147404E+01
H    1.7678672396727748E+01   -1.9612641339916161E+00    1.6194316163097024E+01
O    5.6082901092630779E+00   -2.8453419031350156E+00    7.2328888813571757E+00
H    5.2211336649877804E+00   -3.7417708066175104E+00    7.0283182157411517E+00
H    5.0554546487435728E+00   -2.5167935854285086E+00    7.9398803719525821E+00
O    1.4061035330825126E+01    2.0193164934680720E+01    1.3160121932891846E+01
H    1.4592893497594936E+01    1.9441248072409451E+01    1.2850142450390255E+01
H    1.4780598477126819E+01    2.0721303449128900E+01    1.3618661652394549E+01
O   -6.1579877464206723E+00    9.4272367134189707E+00    1.1778327642590908E+01
H   -6.5185860672394540E+00    8.5563037712567187E+00    1.2049863683935046E+01
H   -6.7398646843955161E+00    9.7428242932893063E+00    1.1090154416851854E+01
O    2.3759539795759686E+01    5.4246976891810850E-01   -3.7879422166367549E+00
H    2.3389124292173744E+01    1.2560170247514584E+00   -3.1535878881148522E+00
H    2.3062397336639492E+01   -3.4590288823161383E-02   -4.1178491991947475E+00
O   -7.9017623458051194E+00    7.0179148347936957E+00    1.2759818239575859E+01
H   -7.6579037377530526E+00    6.3205215804831791E+00    1.2127975104086227E+01
H   -7.4199460621206290E+00    6.7992568577319199E+00    1.3596521273363813E+01
O    1.3410070493849981E+01   -9.7980544996839214E+00   -2.2419692308430106E-01
H    1.2583290769446254E+01   -9.3244363726703021E+00   -5.3861184985077948E-01
H    1.3168390479319903E+01   -1.0670924026453795E+01    1.7956567070996352E-01
O    1.5700233055737099E+01    2.1706130796901629E+01   -1.8463311273737570E+00
H    1.5441727834597771E+01    2.2399792431729551E+01   -2.4975484214525290E+00
H    1.4910960858843289E+01    2.1392057282969699E+01   -1.3036966547604565E+00
O    1.7880186701845616E+01   -2.6344640286951755E+00    5.8326185752224013E+00
H    1.7571075238746076E+01   -1.7233772518962185E+00    6.1114562290375476E+00
H    1.7691510853701697E+01   -2.8335152670938877E+00    4.9068058836032078E+00
O    1.8450060198634230E+01    1.0324454964701237E+01    3.6668829185925000E+00
H    1.7771394387150952E+01    1.0709553459935224E+01    4.2978299016484458E+00
H    1.9098747158203722E+01    1.1024292850925299E+01    3.5003636264064704E+00
O    2.5563955630161058E+01    8.0589209857954351E+00   -1.0320556524324169E+00
H    2.4818724126704950E+01    7.5296572728226705E+00   -1.3415122716093419E+00
H    2.5332778204943860E+01    8.9464095862981488E+00   -1.5616115423590218E+00
O   -5.9871368386895174E+00    1.9462927722198312E+01    1.1539271169488211E+01
H   -6.9869863230916973E+00    1.9338289581380597E+01    1.1371915929259032E+01
H   -6.1945429409370822E+00    1.9732415012425822E+01    1.2507888542465173E+01
O   -5.8008484419091237E+00    1.7518928741838447E+01    1.7259017386275104E+01
H   -5.4380113301054260E+00    1.8394208955986798E+01    1.6975925774893291E+01
H   -5.9197068261562622E+00    1.7156121544020859E+01    1.6371493643559955E+01
O    7.8833435077997658E+00    9.1023075052227634E-02   -7.0123119758631249E+00
H    8.1256450740155781E+00    8.1172126407291961E-02   -6.0714558314091081E+00
H    6.8984906635903247E+00    9.6064792492249161E-03   -7.1738782940768617E+00
O   -3.3704987759014924E+00    6.2030929773742045E+00    5.6215297071638242E+00
H   -4.0341181107801152E+00    6.9658849297365055E+00    5.6548339774054250E+00
H   -2.4471591649819251E+00    6.5429412253470618E+00    5.5609962350456463E+00
O    3.6210683688060317E+00    1.6826549646690925E+01    2.3941804243728900E+01
H    3.5528248864221275E+00    1.6022058737562585E+01    2.3451092755740699E+01
H    3.9166028023323403E+00    1.7430259085380072E+01    2.3228942858764302E+01
O    1.6859276020186122E+01    1.4141329808318417E+01    3.0222067399137047E+00
H    1.6858265934648330E+01    1.3255938986989790E+01    2.6026837936217020E+00
H    1.6000659207496458E+01    1.4565270228314839E+01    2.8756122666989117E+00
O    2.0238713390927018E+01    7.1544471152403251E+00    4.9802311679540487E+00
H    1.9816585048671030E+01    7.9897210287889671E+00    4.6072136231694936E+00
H    2.0644145330383552E+01    6.7030601579992393E+00    4.2767891313850921E+00
O    1.7264888177521104E+01    7.8648328339825859E+00   -6.2574886009845763E+00
H    1.8160997112605358E+01    7.9234593156356343E+00   -5.8343637058590678E+00
H    1.7380572298230351E+01    7.8963191242296942E+00   -7.2132381818542850E+00
O    7.6657478552266785E+00   -1.9573545647861352E+00    2.2596827697427869E+01
H    8.1563925631521244E+00   -1.1021011035584878E+00    2.2632366110238557E+01
H    6.9119664931249378E+00   -2.1994994726727275E+00    2.3138116107340224E+01
O   -5.3993807766524606E-02    1.1908335479880629E+01    1.4354899666949630E+00
H    9.1297672495978399E-01    1.1859020729998612E+01    1.4271504998979632E+00
H   -3.6491331009091516E-01    1.2412353105912178E+01    6.5206888929870799E-01
O   -7.5894944768110895E-01    2.4815570798060143E+00    9.9375070183350669E+00
H   -8.0151364759710064E-01    3.1826920395197282E+00    1.0544990763963241E+01
H   -1.2327668148573385E+00    2.8384979614615582E+00    9.1878985934766710E+00
O    5.4128080892009633E-01    1.9140566553979004E+00    1.3333437446642135E+01
H    1.1111161483597447E+00    1.3292364048427869E+00    1.2829137755086750E+01
H    7.5656490696492906E-01    2.8362568625342357E+00    1.3174561030878566E+01
O    2.9452732926139689E+00    1.3070673422811204E+01    2.5214422589002483E+00
H    2.9270077013631415E+00    1.2610152042816576E+01    3.4436777811272909E+00
H    3.5960981260903004E+00    1.2582222925920258E+01    1.9834488788222180E+00
O    9.1887249208142343E+00    1.5231958813381894E+01    1.2235362985905336E+00
H    9.8883056163045140E+00    1.4773659092382269E+01    1.7169719135921053E+00
H    9.5027520522739195E+00    1.6145877145732534E+01    1.2670140987439131E+00
O   -3.1872171333184816E+00    9.9427917031064474E+00    3.0881829096876117E+00
H   -3.3919517316522740E+00    1.0668057872188154E+01    2.4733157872869151E+00
H   -3.9491732019262402E+00    9.6589510837410693E+00    3.6029138310453903E+00
O    1.6354784087833384E+01    3.8295024150018122E+00    2.3237759825479096E+00
H    1.6427526084343508E+01    3.3460347485666411E+00    3.2002171714963095E+00
H    1.6384327528820638E+01    4.8148661375331496E+00    2.4173691283684677E+00
O    2.9331215802097280E+01   -8.8146078645121548E+00    9.3426934565178819E+00
H    2.9399227828000978E+01   -8.8607279178904719E+00    1.0319058054821168E+01
H    2.9904837938924775E+01   -8.0634618647850012E+00    9.0779513606542892E+00
O    7.1096861345960916E+00    1.0594985564158009E+01    1.7362729235765737E+01
H    6.5494471635535092E+00    1.1400278339050777E+01    1.7603787628298655E+01
H    6.4473417233812524E+00    9.8849359126713878E+00    1.7463675582012819E+01
O    3.6345631534801823E+00    4.4033383836596292E+00    2.9526620428606609E+00
H    3.3324865094015541E+00    3.5865440231437407E+00    2.5087856514580653E+00
H    4.5358707277717984E+00    4.5586861866163630E+00    2.7615364022034075E+00
O    2.1384976303911408E+01   -1.9290539511560088E+00   -1.2460597244445516E+01
H    2.1464581315995023E+01   -2.8845115955444673E+00   -1.2281505774858099E+01
H    2.1959374228040772E+01   -1.4456038857355957E+00   -1.1873309611825713E+01
O    4.7710394324676786E+00    4.0103984274546347E+00   -3.1086237967796184E+00
H    4.8904115394268803E+00    4.8334665612424468E+00   -2.6476572653238812E+00
H    5.6616073095892219E+00    3.7347320775607802E+00   -3.2566076580933672E+00
O    2.3845978921068607E+00   -4.5290557474292170E-01    2.9285608316131948E+00
H    2.7905415761185406E+00   -1.2585464292774720E+00    3.2375820764393137E+00
H    1.7457527905912575E+00   -7.9822970321258846E-01    2.2334953345472144E+00
O    4.5990724793400917E+00   -1.9598025407064530E+00    1.3756831583222761E+01
H    4.6927635564115011E+00   -2.8413595346129221E+00    1.4179918515231321E+01
H    5.3415845991602877E+00   -1.5395843558227722E+00    1.4162067661380553E+01
O    2.9221598618580922E+00   -1.1031241005556855E+00    1.1485459495876080E+01
H    2.5489964773718468E+00   -1.3064544546195402E+00    1.0612621191526529E+01
H    2.9719126660518054E+00   -1.8831691148215848E+00    1.2076376798483501E+01
O    1.7678260684113624E+01    4.7715965617729879E+00   -1.1978954131785240E+01
H    1.7484640861342744E+01    4.6658626421247487E+00   -1.1002265732988366E+01
H    1.8463706410649603E+01    5.2925006709992708E+00   -1.1966333603073187E+01
O    1.1291707456691825E+01    1.1419832534439053E+01    8.0198602221112960E+00
H    1.0689650262106397E+01    1.2068079407051588E+01    8.3606494647960847E+00
H    1.0932412522315996E+01    1.1177645269015770E+01    7.0913647404318487E+00
O    8.5177996476032336E-01    1.8145309620776595E+00    4.5206546437278332E+00
H    7.5291690648640064E-01    2.7097734132249292E+00    4.9054158714434646E+00
H    1.7350407416931111E+00    1.7765036596037937E+00    4.1176086888437711E+00
O   -5.3668868005007395E+00    1.4516953979287599E+01   -1.0256177076187376E+01
H   -4.9428896129505100E+00    1.5360543532922788E+01   -9.9762403368916157E+00
H   -6.1241538737517445E+00    1.4433899581549396E+01   -9.6825834682572847E+00
O    1.6919654535270791E+01    6.4087007419142834E+00    1.6982146367256515E+01
H    1.5966004045278812E+01    6.7276632660803868E+00    1.7052410518415094E+01
H    1.6853596171792422E+01    5.4547013574223708E+00    1.6696034547374396E+01
O    3.4219956377314875E+00    2.3887623287254222E+01    8.5803132985453665E+00
H    2.9080547324173054E+00    2.3035945739519974E+01    8.6545993441183189E+00
H    4.3527654538034266E+00    2.3716199635185287E+01    8.4136375685295359E+00
O    8.0709556964759219E+00    1.3984191044892547E+00    1.7194391038377383E+01
H    8.8060993877714555E+00    1.9910002084990546E+00    1.7367223678672310E+01
H    7.3419725612550657E+00    1.9476847999846829E+00    1.7576414086541508E+01
O    7.6834394123427341E+00    1.1021501655247362E-01    2.4125303816076720E+01
H    7.5951075402408641E+00    2.9646140116042263E-01    2.5066289585497241E+01
H    8.3456392762754934E+00    6.5786173548375815E-01    2.3808836106686002E+01
O    1.7019215643177208E+00    4.7242909357444214E+00   -3.8527746859812382E+00
H    2.5116318071202963E+00    4.9213852376864917E+00   -4.3495873522957647E+00
H    1.8363051186587214E+00    4.2257024724693517E+00   -3.0332241929769816E+00
O    2.7776430864870189E+01    1.8082925881222245E+01    8.1946480153876688E+00
H    2.7576465944985888E+01    1.8728238304393074E+01    8.8822513539043833E+00
H    2.7711175179207849E+01    1.8588813020186443E+01    7.3529814938143883E+00
O    6.7356967117489912E+00   -7.6990764755733665E-01    2.9099895973930736E+00
H    6.7326132038916553E+00   -1.3179322472960040E+00    3.7325672958813016E+00
H    7.6533327727457543E+00   -8.4475715791977490E-01    2.6546526890097253E+00
O    1.5263621916911568E+01   -4.4816070655759577E-01   -3.1329387033512113E+00
H    1.5862692418855643E+01    3.1533024282195726E-01   -3.0155436379738125E+00
H    1.5409693441993356E+01   -7.0947030579978987E-01   -4.0751204208894523E+00
O    8.3698975222936163E+00    9.4368392590437900E+00    6.1410169738050691E+00
H    9.0247065926691032E+00    9.7770531211893008E+00    5.5422839110862387E+00
H    7.5062996263618302E+00    9.8930161093755515E+00    5.9678753323729090E+00
O    1.4015003983300356E+00    1.0113357612892880E+01   -1.1732971309747411E+00
H    6.4639973521971794E-01    1.0181365964222111E+01   -5.6728512763199079E-01
H    9.9201790669866297E-01    9.5231591132471962E+00   -1.8544020277213942E+00
O    2.3287281434382368E+01    1.3605983195241730E+01    1.1568725681187535E+00
H    2.3921878243108285E+01    1.4240154906788071E+01    1.5172868152667613E+00
H    2.2449758410175033E+01    1.4092964252080190E+01    1.1312621238694462E+00
O    1.1207539269068727E+01    5.3125012846168973E+00    4.3517648384226684E+00
H    1.0634113203198945E+01    5.4540627312072729E+00    3.5917086227456472E+00
H    1.2167265326272181E+01    5.1657378077152911E+00    4.1668106974333554E+00
O    1.0909879489666592E+01    1.4428793240194281E+01    3.0890260219214976E+00
H    1.1383259323301157E+01    1.5130418236802909E+01    3.5090205937993728E+00
H    1.1142466634376646E+01    1.3579518051347364E+01    3.5954907662939615E+00
O    5.8009301887201490E+00    1.4687882180392936E+01    1.0863988900630273E+01
H    5.0354286895920719E+00    1.4747122466776037E+01    1.0225455923203990E+01
H    5.4611632780384980E+00    1.4694932361732803E+01    1.1777954393557200E+01
O    1.2277067975943579E+01    9.1924624524712186E+00    5.8441266402839913E+00
H    1.1607030379306597E+01    8.9544730557262682E+00    5.2420941902167364E+00
H    1.2203001393013347E+01    8.6617201949453939E+00    6.6014056690717569E+00
O    1.3185767985336321E+01    3.7508120918017558E+00    1.6781277797630963E+01
H    1.3500696383130538E+01    2.9494288290026960E+00    1.6348103427978632E+01
H    1.2341570182476930E+01    3.9247098387105521E+00    1.6411072424371657E+01
O    2.8541060421392710E+00    8.9452217673416339E+00    1.2644095116475345E+01
H    2.7682579716911029E+00    9.8898654923173783E+00    1.2581498485072727E+01
H    3.4670156370328113E+00    8.6674205296699149E+00    1.3368118488573094E+01
O   -3.0782730584683593E+00    1.4695176099977635E+01    9.7723728676427761E+00
H   -3.9755906892264008E+00    1.4495461103536808E+01    9.6416301480399973E+00
H   -2.7474071150987829E+00    1.4480398771210671E+01    1.0657977887566961E+01
O   -4.6865080970259605E+00    5.6578727114732574E+00    1.2223793859931767E+01
H   -5.0352976641081186E+00    5.9328466532409934E+00    1.1407175469041123E+01
H   -4.1828756463425751E+00    4.8447725964873243E+00    1.2334856277749100E+01
O    1.6163151157959838E+01   -3.9461326063882685E+00    7.7604097966716399E+00
H    1.5543171991049277E+01   -3.2614207965821476E+00    8.1955185709631824E+00
H    1.6877851826513385E+01   -3.4006550550500769E+00    7.3673500423096954E+00
O    1.9623037893248423E+01    1.7991396227941824E+01   -5.9597377687783493E-01
H    1.9156979279332152E+01    1.7118794784038592E+01   -5.1629131864255728E-01
H    2.0439607339746573E+01    1.8006140110168431E+01   -8.0576449259954094E-02
O    1.5884224266593597E+01   -6.0514111326034055E+00   -3.4325358632950347E+00
H    1.6197601197099953E+01   -6.4029725161796049E+00   -4.3386861110749262E+00
H    1.4924999473044320E+01   -6.0368024227325714E+00   -3.5007524139050221E+00
O    9.6122586439723232E+00    2.2486959304545973E+01    1.0415174793547912E+01
H    9.4494040361718614E+00    2.3123713388815847E+01    9.6950974203993336E+00
H    9.1972794107589912E+00    2.1638344182815178E+01    1.0169486786597659E+01
O    9.7967967303820522E+00    1.6817738339280062E+01    2.1363335825703590E+01
H    1.0703761372595803E+01    1.7079935957452690E+01    2.0995297457428165E+01
H    9.6168113796256254E+00    1.5903910785050794E+01    2.1118867243160345E+01
O    2.6724198273617965E+00    1.1677487914562329E+01   -5.2263924870888214E+00
H    1.9819591924227147E+00    1.1276583192152573E+01   -5.7432202468733866E+00
H    3.4693590744233949E+00    1.1837818111962404E+01   -5.7814867781442718E+00
O    1.3056228780949242E+01    1.2333803498635037E+01    1.6355529431882969E+00
H    1.2231552278753782E+01    1.2230169946958053E+01    1.1471517168483305E+00
H    1.3133348653767682E+01    1.3278357508409570E+01    1.6386170218061231E+00
O    2.5243857144067268E+00    1.3586776291830407E+01    8.5922266605975146E+00
H    2.0766096820993170E+00    1.4101272277178698E+01    7.9008512443973586E+00
H    1.9063618405293625E+00    1.2869630768332330E+01    8.7860358329051849E+00
O    1.9060929928848356E+01    1.2942419263224078E+01   -2.7192029735603440E+00
H    1.9071190477424715E+01    1.2656406130981351E+01   -3.6196647574559595E+00
H    1.9848449770716087E+01    1.2428955782480186E+01   -2.3574035194193548E+00
O    1.5878136797812095E+01    4.8899341411642281E+00    1.1851645419125203E+01
H    1.5210956086911517E+01    5.5365776205657520E+00    1.1691805649368227E+01
H    1.6584711035044212E+01    5.2331623433444809E+00    1.2398396688741039E+01
O    9.2340679555795369E+00    4.6280982911846440E+00    1.7167858620953989E+01
H    9.8853379745387393E+00    4.4463811455630013E+00    1.7823995419206863E+01
H    8.4593619083892229E+00    5.0420115538618129E+00    1.7753349360066046E+01
O   -2.9736398485561013E+00   -1.7253543948019117E+00    2.1974363066514209E+00
H   -2.9866243362767828E+00   -1.9397433444031273E+00    1.2108264254556749E+00
H   -3.3989404587542351E+00   -8.8553789704704300E-01    2.3364835406370004E+00
O    8.7106238679711527E+00   -5.7933700803914165E+00    1.9782519198579010E+01